     Program PWSCF v.7.0 starts on 18Feb2023 at 14:46:57

     Waiting for input...
     Reading input from standard input

     Current dimensions of program PWSCF are:
     Max number of different atomic species (ntypx) = 10
     Max number of k-points (npk) =  40000
     Max angular momentum in pseudopotentials (lmaxx) =  4
     file Ge.SCAN.UPF: wavefunction(s)  0D renormalized

     WARNING: the MGGA functional with ID    5 has been
     read together with other dft terms, but it should
     stand alone in order to work properly. The other
     terms will be ignored.

     Subspace diagonalization in iterative solution of the eigenvalue problem:
     a serial algorithm will be used

     Using Slab Decomposition

     bravais-lattice index     =            2
     lattice parameter (alat)  =      10.2631  a.u.
     unit-cell volume          =     270.2562 (a.u.)^3
     number of atoms/cell      =            2
     number of atomic types    =            1
     number of electrons       =         8.00
     number of Kohn-Sham states=            4
     kinetic-energy cutoff     =      50.0000  Ry
     charge density cutoff     =     200.0000  Ry
     scf convergence threshold =      1.0E-06
     mixing beta               =       0.0100
     number of iterations used =            8  local-TF  mixing
     energy convergence thresh.=      1.0E-04
     force convergence thresh. =      1.0E-03
     press convergence thresh. =      5.0E-01
     Exchange-correlation=  SLA  PW  SCAN SCAN
                           (   0   0   0   0   0 263 267)
     nstep                     =           50

     celldm(1)=  10.263100  celldm(2)=   0.000000  celldm(3)=   0.000000
     celldm(4)=   0.000000  celldm(5)=   0.000000  celldm(6)=   0.000000

     crystal axes: (cart. coord. in units of alat)
               a(1) = (  -0.500000   0.000000   0.500000 )
               a(2) = (   0.000000   0.500000   0.500000 )
               a(3) = (  -0.500000   0.500000   0.000000 )

     reciprocal axes: (cart. coord. in units 2 pi/alat)
               b(1) = ( -1.000000 -1.000000  1.000000 )
               b(2) = (  1.000000  1.000000  1.000000 )
               b(3) = ( -1.000000  1.000000 -1.000000 )

     PseudoPot. # 1 for Ge read from file:
     ~/Documents/PWDFT.jl/pseudopotentials/scan_upf/Ge.SCAN.UPF
     MD5 check sum: Not computed, couldn't open file
     Pseudo is Norm-conserving, Zval =  4.0
     Generated by new atomic code, or converted to UPF format
     Using radial grid of 1557 points,  2 beta functions with:
                l(1) =   0
                l(2) =   1

     atomic species   valence    mass     pseudopotential
        Ge             4.00    72.64000     Ge( 1.00)

     48 Sym. Ops., with inversion, found (24 have fractional translation)

   Cartesian axes

     site n.     atom                  positions (alat units)
         1           Ge  tau(   1) = (   0.0000000   0.0000000   0.0000000  )
         2           Ge  tau(   2) = (   0.2500000   0.2500000   0.2500000  )

     number of k points=    47
                       cart. coord. in units 2pi/alat
        k(    1) = (   0.0000000   0.0000000   0.0000000), wk =   0.0020000
        k(    2) = (  -0.1000000   0.1000000  -0.1000000), wk =   0.0160000
        k(    3) = (  -0.2000000   0.2000000  -0.2000000), wk =   0.0160000
        k(    4) = (  -0.3000000   0.3000000  -0.3000000), wk =   0.0160000
        k(    5) = (  -0.4000000   0.4000000  -0.4000000), wk =   0.0160000
        k(    6) = (   0.5000000  -0.5000000   0.5000000), wk =   0.0080000
        k(    7) = (   0.0000000   0.2000000   0.0000000), wk =   0.0120000
        k(    8) = (  -0.1000000   0.3000000  -0.1000000), wk =   0.0480000
        k(    9) = (  -0.2000000   0.4000000  -0.2000000), wk =   0.0480000
        k(   10) = (  -0.3000000   0.5000000  -0.3000000), wk =   0.0480000
        k(   11) = (   0.6000000  -0.4000000   0.6000000), wk =   0.0480000
        k(   12) = (   0.5000000  -0.3000000   0.5000000), wk =   0.0480000
        k(   13) = (   0.4000000  -0.2000000   0.4000000), wk =   0.0480000
        k(   14) = (   0.3000000  -0.1000000   0.3000000), wk =   0.0480000
        k(   15) = (   0.2000000   0.0000000   0.2000000), wk =   0.0240000
        k(   16) = (   0.0000000   0.4000000   0.0000000), wk =   0.0120000
        k(   17) = (  -0.1000000   0.5000000  -0.1000000), wk =   0.0480000
        k(   18) = (  -0.2000000   0.6000000  -0.2000000), wk =   0.0480000
        k(   19) = (   0.7000000  -0.3000000   0.7000000), wk =   0.0480000
        k(   20) = (   0.6000000  -0.2000000   0.6000000), wk =   0.0480000
        k(   21) = (   0.5000000  -0.1000000   0.5000000), wk =   0.0480000
        k(   22) = (   0.4000000   0.0000000   0.4000000), wk =   0.0240000
        k(   23) = (   0.0000000   0.6000000   0.0000000), wk =   0.0120000
        k(   24) = (  -0.1000000   0.7000000  -0.1000000), wk =   0.0480000
        k(   25) = (   0.8000000  -0.2000000   0.8000000), wk =   0.0480000
        k(   26) = (   0.7000000  -0.1000000   0.7000000), wk =   0.0480000
        k(   27) = (   0.6000000  -0.0000000   0.6000000), wk =   0.0240000
        k(   28) = (   0.0000000   0.8000000   0.0000000), wk =   0.0120000
        k(   29) = (   0.9000000  -0.1000000   0.9000000), wk =   0.0480000
        k(   30) = (   0.8000000   0.0000000   0.8000000), wk =   0.0240000
        k(   31) = (   0.0000000  -1.0000000   0.0000000), wk =   0.0060000
        k(   32) = (  -0.2000000   0.4000000   0.0000000), wk =   0.0480000
        k(   33) = (  -0.3000000   0.5000000  -0.1000000), wk =   0.0960000
        k(   34) = (   0.6000000  -0.4000000   0.8000000), wk =   0.0960000
        k(   35) = (   0.5000000  -0.3000000   0.7000000), wk =   0.0480000
        k(   36) = (  -0.2000000   0.6000000   0.0000000), wk =   0.0480000
        k(   37) = (   0.7000000  -0.3000000   0.9000000), wk =   0.0960000
        k(   38) = (   0.6000000  -0.2000000   0.8000000), wk =   0.0960000
        k(   39) = (   0.5000000  -0.1000000   0.7000000), wk =   0.0960000
        k(   40) = (   0.4000000   0.0000000   0.6000000), wk =   0.0480000
        k(   41) = (   0.8000000  -0.2000000   1.0000000), wk =   0.0480000
        k(   42) = (   0.7000000  -0.1000000   0.9000000), wk =   0.0960000
        k(   43) = (   0.6000000   0.0000000   0.8000000), wk =   0.0480000
        k(   44) = (  -0.2000000  -1.0000000   0.0000000), wk =   0.0240000
        k(   45) = (   0.6000000  -0.2000000   1.0000000), wk =   0.0480000
        k(   46) = (   0.5000000  -0.1000000   0.9000000), wk =   0.0480000
        k(   47) = (  -0.4000000  -1.0000000   0.0000000), wk =   0.0240000

      on external parameters: check the user_guide of
      QE if you need to modify them or to check their
      default values.

     Initial potential from superposition of free atoms

     starting charge       7.9987, renormalised to       8.0000
     Starting wfcs are   18 randomized atomic wfcs

     Self-consistent Calculation

     iteration #  1     ecut=    50.00 Ry     beta= 0.01
     Davidson diagonalization with overlap
     ethr =  1.00E-02,  avg # of iterations =  1.9

     Threshold (ethr) on eigenvalues was too large:
     Diagonalizing with lowered threshold

     Davidson diagonalization with overlap
     ethr =  4.57E-04,  avg # of iterations =  6.0

     total energy              =     -15.70733785 Ry
     estimated scf accuracy    <       0.04534161 Ry

[...]

     iteration #  8     ecut=    50.00 Ry     beta= 0.01
     Davidson diagonalization with overlap
     c_bands:  3 eigenvalues not converged
     c_bands:  3 eigenvalues not converged
     ethr =  2.12E-06,  avg # of iterations = 11.5

[...]

     End of self-consistent calculation

          k = 0.0000 0.0000 0.0000 (  1639 PWs)   bands (ev):

    -7.0688   6.8301   6.8301   6.8301

          k =-0.1000 0.1000-0.1000 (  1606 PWs)   bands (ev):

[...]

     highest occupied level (ev):     6.8301

!    total energy              =     -15.81391375 Ry
     estimated scf accuracy    <       0.00000007 Ry

     The total energy is the sum of the following terms:
     one-electron contribution =       4.68943265 Ry
     hartree contribution      =       1.09134098 Ry
     xc contribution           =      -4.79883254 Ry
     ewald contribution        =     -16.79585484 Ry

     convergence has been achieved in  21 iterations
     Writing meta-gga kinetic term

     Forces acting on atoms (cartesian axes, Ry/au):

     atom    1 type  1   force =    -0.00000000   -0.00000000   -0.00000000
     atom    2 type  1   force =     0.00000000    0.00000000    0.00000000

     Total force =     0.000000     Total SCF correction =     0.000000

     Computing stress (Cartesian axis) and pressure

          total   stress  (Ry/bohr**3)                   (kbar)     P=      135.56
   0.00092153  -0.00000000  -0.00000000          135.56       -0.00       -0.00
  -0.00000000   0.00092153  -0.00000000           -0.00      135.56       -0.00
   0.00000000   0.00000000   0.00092153            0.00        0.00      135.56

     BFGS Geometry Optimization
     Energy error            =      0.0E+00 Ry
     Gradient error          =      2.3E-32 Ry/Bohr
     Cell gradient error     =      1.4E+02 kbar

     number of scf cycles    =   1
     number of bfgs steps    =   0

     enthalpy           new  =     -15.8139137471 Ry

     new trust radius        =       0.0757472758 bohr
     new conv_thr            =       0.0000010000 Ry

     new unit-cell volume =    289.36852 a.u.^3 (    42.87999 Ang^3 )
     density =      5.62601 g/cm^3

CELL_PARAMETERS (alat= 10.26310000)
  -0.511519117   0.000000000   0.511519117
  -0.000000000   0.511519117   0.511519117
  -0.511519117   0.511519117   0.000000000

ATOMIC_POSITIONS (alat)
Ge           -0.0000000000       -0.0000000000       -0.0000000000
Ge            0.2557595584        0.2557595584        0.2557595584

     Writing config-only to output data dir ./pwscf.save/
     NEW-OLD atomic charge density approx. for the potential
     extrapolated charge    8.52830, renormalised to    8.00000

[...]

     Energy error            =      1.2E-02 Ry
     Gradient error          =      0.0E+00 Ry/Bohr
     Cell gradient error     =      5.5E+01 kbar

[...]

     enthalpy           old  =     -15.8139137471 Ry
     enthalpy           new  =     -15.8259412017 Ry

     CASE: enthalpy          _new < enthalpy          _old

[...]

     number of scf cycles    =   4
     number of bfgs steps    =   3

     enthalpy           old  =     -15.8290873251 Ry
     enthalpy           new  =     -15.8292209662 Ry

     CASE: enthalpy          _new < enthalpy          _old

     new trust radius        =       0.0019695981 bohr
     new conv_thr            =       0.0000000100 Ry

     new unit-cell volume =    308.14727 a.u.^3 (    45.66271 Ang^3 )
     density =      5.28315 g/cm^3

[...]

ATOMIC_POSITIONS (alat)
Ge           -0.0000000000       -0.0000000000       -0.0000000000
Ge            0.2611765733        0.2611765733        0.2611765733

     Writing config-only to output data dir ./pwscf.save/
     NEW-OLD atomic charge density approx. for the potential
     extrapolated charge    8.01346, renormalised to    8.00000

[...]

     Threshold (ethr) on eigenvalues was too large:
     Diagonalizing with lowered threshold

     Davidson diagonalization with overlap
     ethr =  2.12E-08,  avg # of iterations =  7.0

[...]

     Energy error            =      2.2E-06 Ry
     Gradient error          =      6.3E-32 Ry/Bohr
     Cell gradient error     =      5.7E-02 kbar

     bfgs converged in   5 scf cycles and   4 bfgs steps
     (criteria: energy <  1.0E-04 Ry, force <  1.0E-03Ry/Bohr, cell <  5.0E-01kbar)

     End of BFGS Geometry Optimization

     Final enthalpy           =     -15.8292231524 Ry

     File ./pwscf.bfgs deleted, as requested
Begin final coordinates
     new unit-cell volume =    308.14727 a.u.^3 (    45.66271 Ang^3 )
     density =      5.28315 g/cm^3

CELL_PARAMETERS (alat= 10.26310000)
  -0.522353147   0.000000000   0.522353147
  -0.000000000   0.522353147   0.522353147
  -0.522353147   0.522353147   0.000000000

ATOMIC_POSITIONS (alat)
Ge           -0.0000000000       -0.0000000000       -0.0000000000
Ge            0.2611765733        0.2611765733        0.2611765733
End final coordinates

     Writing config-only to output data dir ./pwscf.save/

     Final scf calculation at the relaxed structure.
     The G-vectors are recalculated for the final unit cell
     Results may differ from those at the preceding step.

     Using Slab Decomposition

     bravais-lattice index     =            2
     lattice parameter (alat)  =      10.2631  a.u.
     unit-cell volume          =     308.1473 (a.u.)^3
     number of atoms/cell      =            2
     number of atomic types    =            1
     number of electrons       =         8.00
     number of Kohn-Sham states=            4
     kinetic-energy cutoff     =      50.0000  Ry
     charge density cutoff     =     200.0000  Ry
     scf convergence threshold =      1.0E-08
     mixing beta               =       0.0100
     number of iterations used =            8  local-TF  mixing
     press convergence thresh. =      5.0E-01
     Exchange-correlation=  SLA  PW  SCAN SCAN
                           (   0   0   0   0   0 263 267)

     celldm(1)=  10.263100  celldm(2)=   0.000000  celldm(3)=   0.000000
     celldm(4)=   0.000000  celldm(5)=   0.000000  celldm(6)=   0.000000

     crystal axes: (cart. coord. in units of alat)
               a(1) = (  -0.522353   0.000000   0.522353 )
               a(2) = (  -0.000000   0.522353   0.522353 )
               a(3) = (  -0.522353   0.522353   0.000000 )

     reciprocal axes: (cart. coord. in units 2 pi/alat)
               b(1) = ( -0.957207 -0.957207  0.957207 )
               b(2) = (  0.957207  0.957207  0.957207 )
               b(3) = ( -0.957207  0.957207 -0.957207 )

     PseudoPot. # 1 for Ge read from file:
     ~/Documents/PWDFT.jl/pseudopotentials/scan_upf/Ge.SCAN.UPF
     MD5 check sum: Not computed, couldn't open file
     Pseudo is Norm-conserving, Zval =  4.0
     Generated by new atomic code, or converted to UPF format
     Using radial grid of 1557 points,  2 beta functions with:
                l(1) =   0
                l(2) =   1

     atomic species   valence    mass     pseudopotential
        Ge             4.00    72.64000     Ge( 1.00)

     48 Sym. Ops., with inversion, found (24 have fractional translation)

   Cartesian axes

     site n.     atom                  positions (alat units)
         1           Ge  tau(   1) = (  -0.0000000  -0.0000000  -0.0000000  )
         2           Ge  tau(   2) = (   0.2611766   0.2611766   0.2611766  )

     number of k points=    47
                       cart. coord. in units 2pi/alat
        k(    1) = (   0.0000000   0.0000000   0.0000000), wk =   0.0020000
        k(    2) = (  -0.0957207   0.0957207  -0.0957207), wk =   0.0160000
        k(    3) = (  -0.1914414   0.1914414  -0.1914414), wk =   0.0160000
        k(    4) = (  -0.2871620   0.2871620  -0.2871620), wk =   0.0160000
        k(    5) = (  -0.3828827   0.3828827  -0.3828827), wk =   0.0160000
        k(    6) = (   0.4786034  -0.4786034   0.4786034), wk =   0.0080000
        k(    7) = (   0.0000000   0.1914414   0.0000000), wk =   0.0120000
        k(    8) = (  -0.0957207   0.2871620  -0.0957207), wk =   0.0480000
        k(    9) = (  -0.1914414   0.3828827  -0.1914414), wk =   0.0480000
        k(   10) = (  -0.2871620   0.4786034  -0.2871620), wk =   0.0480000
        k(   11) = (   0.5743241  -0.3828827   0.5743241), wk =   0.0480000
        k(   12) = (   0.4786034  -0.2871620   0.4786034), wk =   0.0480000
        k(   13) = (   0.3828827  -0.1914414   0.3828827), wk =   0.0480000
        k(   14) = (   0.2871620  -0.0957207   0.2871620), wk =   0.0480000
        k(   15) = (   0.1914414   0.0000000   0.1914414), wk =   0.0240000
        k(   16) = (   0.0000000   0.3828827   0.0000000), wk =   0.0120000
        k(   17) = (  -0.0957207   0.4786034  -0.0957207), wk =   0.0480000
        k(   18) = (  -0.1914414   0.5743241  -0.1914414), wk =   0.0480000
        k(   19) = (   0.6700448  -0.2871620   0.6700448), wk =   0.0480000
        k(   20) = (   0.5743241  -0.1914414   0.5743241), wk =   0.0480000
        k(   21) = (   0.4786034  -0.0957207   0.4786034), wk =   0.0480000
        k(   22) = (   0.3828827   0.0000000   0.3828827), wk =   0.0240000
        k(   23) = (   0.0000000   0.5743241   0.0000000), wk =   0.0120000
        k(   24) = (  -0.0957207   0.6700448  -0.0957207), wk =   0.0480000
        k(   25) = (   0.7657655  -0.1914414   0.7657655), wk =   0.0480000
        k(   26) = (   0.6700448  -0.0957207   0.6700448), wk =   0.0480000
        k(   27) = (   0.5743241   0.0000000   0.5743241), wk =   0.0240000
        k(   28) = (   0.0000000   0.7657655   0.0000000), wk =   0.0120000
        k(   29) = (   0.8614861  -0.0957207   0.8614861), wk =   0.0480000
        k(   30) = (   0.7657655   0.0000000   0.7657655), wk =   0.0240000
        k(   31) = (   0.0000000  -0.9572068   0.0000000), wk =   0.0060000
        k(   32) = (  -0.1914414   0.3828827   0.0000000), wk =   0.0480000
        k(   33) = (  -0.2871620   0.4786034  -0.0957207), wk =   0.0960000
        k(   34) = (   0.5743241  -0.3828827   0.7657655), wk =   0.0960000
        k(   35) = (   0.4786034  -0.2871620   0.6700448), wk =   0.0480000
        k(   36) = (  -0.1914414   0.5743241  -0.0000000), wk =   0.0480000
        k(   37) = (   0.6700448  -0.2871620   0.8614861), wk =   0.0960000
        k(   38) = (   0.5743241  -0.1914414   0.7657655), wk =   0.0960000
        k(   39) = (   0.4786034  -0.0957207   0.6700448), wk =   0.0960000
        k(   40) = (   0.3828827  -0.0000000   0.5743241), wk =   0.0480000
        k(   41) = (   0.7657655  -0.1914414   0.9572068), wk =   0.0480000
        k(   42) = (   0.6700448  -0.0957207   0.8614861), wk =   0.0960000
        k(   43) = (   0.5743241   0.0000000   0.7657655), wk =   0.0480000
        k(   44) = (  -0.1914414  -0.9572068  -0.0000000), wk =   0.0240000
        k(   45) = (   0.5743241  -0.1914414   0.9572068), wk =   0.0480000
        k(   46) = (   0.4786034  -0.0957207   0.8614861), wk =   0.0480000
        k(   47) = (  -0.3828827  -0.9572068   0.0000000), wk =   0.0240000

      on external parameters: check the user_guide of
      QE if you need to modify them or to check their
      default values.

     Initial potential from superposition of free atoms

     starting charge       7.9987, renormalised to       8.0000
     Starting wfcs are   18 randomized atomic wfcs

     Self-consistent Calculation

[...]

     iteration # 20     ecut=    50.00 Ry     beta= 0.01
     Davidson diagonalization with overlap
     c_bands:  1 eigenvalues not converged
     ethr =  1.04E-09,  avg # of iterations = 12.7

[...]

     total energy              =     -15.82935695 Ry
     estimated scf accuracy    <       0.00000005 Ry

     iteration # 29     ecut=    50.00 Ry     beta= 0.01
     Davidson diagonalization with overlap
     ethr =  3.72E-10,  avg # of iterations =  1.0

     End of self-consistent calculation

[...]

          k = 0.4786-0.0957 0.8615 (  1836 PWs)   bands (ev):

[...]

          k =-0.3829-0.9572 0.0000 (  1840 PWs)   bands (ev):

    -3.4702  -3.4702   1.6107   1.6107

     highest occupied level (ev):     5.4146

!    total energy              =     -15.82935697 Ry
     estimated scf accuracy    <          9.6E-09 Ry

     The total energy is the sum of the following terms:
     one-electron contribution =       3.70138042 Ry
     hartree contribution      =       1.21082213 Ry
     xc contribution           =      -4.66445254 Ry
     ewald contribution        =     -16.07710698 Ry

     convergence has been achieved in  29 iterations
     Writing meta-gga kinetic term

     Forces acting on atoms (cartesian axes, Ry/au):

     atom    1 type  1   force =     0.00000000    0.00000000   -0.00000000
     atom    2 type  1   force =     0.00000000    0.00000000    0.00000000

     Total force =     0.000000     Total SCF correction =     0.000000

     Computing stress (Cartesian axis) and pressure

          total   stress  (Ry/bohr**3)                   (kbar)     P=        0.33
   0.00000222  -0.00000000   0.00000000            0.33       -0.00        0.00
  -0.00000000   0.00000222   0.00000000           -0.00        0.33        0.00
  -0.00000000  -0.00000000   0.00000222           -0.00       -0.00        0.33

     Writing all to output data dir ./pwscf.save/
     Writing meta-gga kinetic term

     General routines

     Parallel routines

   This run was terminated on:  14:51:27  18Feb2023

   JOB DONE.