     Program PWSCF v.7.0 starts on 18Feb2023 at 14:37:17

     Waiting for input...
     Reading input from standard input

     Current dimensions of program PWSCF are:
     Max number of different atomic species (ntypx) = 10
     Max number of k-points (npk) =  40000
     Max angular momentum in pseudopotentials (lmaxx) =  4

     WARNING: the MGGA functional with ID    5 has been
     read together with other dft terms, but it should
     stand alone in order to work properly. The other
     terms will be ignored.

     WARNING: the MGGA functional with ID    5 has been
     read together with other dft terms, but it should
     stand alone in order to work properly. The other
     terms will be ignored.

     Subspace diagonalization in iterative solution of the eigenvalue problem:
     a serial algorithm will be used

     Using Slab Decomposition

     bravais-lattice index     =            2
     lattice parameter (alat)  =      10.2631  a.u.
     unit-cell volume          =     270.2562 (a.u.)^3
     number of atoms/cell      =            2
     number of atomic types    =            2
     number of electrons       =         2.00
     number of Kohn-Sham states=            1
     kinetic-energy cutoff     =      50.0000  Ry
     charge density cutoff     =     200.0000  Ry
     scf convergence threshold =      1.0E-06
     mixing beta               =       0.0100
     number of iterations used =            8  local-TF  mixing
     energy convergence thresh.=      1.0E-04
     force convergence thresh. =      1.0E-03
     press convergence thresh. =      5.0E-01
     Exchange-correlation=  SLA  PW   SCAN SCAN
                           (   0   0   0   0   0 263 267)
     nstep                     =           50

     celldm(1)=  10.263100  celldm(2)=   0.000000  celldm(3)=   0.000000
     celldm(4)=   0.000000  celldm(5)=   0.000000  celldm(6)=   0.000000

     crystal axes: (cart. coord. in units of alat)
               a(1) = (  -0.500000   0.000000   0.500000 )
               a(2) = (   0.000000   0.500000   0.500000 )
               a(3) = (  -0.500000   0.500000   0.000000 )

     reciprocal axes: (cart. coord. in units 2 pi/alat)
               b(1) = ( -1.000000 -1.000000  1.000000 )
               b(2) = (  1.000000  1.000000  1.000000 )
               b(3) = ( -1.000000  1.000000 -1.000000 )

     PseudoPot. # 1 for Li read from file:
     ~/Documents/PWDFT.jl/pseudopotentials/scan_upf/Li.SCAN.UPF
     MD5 check sum: Not computed, couldn't open file
     Pseudo is Norm-conserving, Zval =  1.0
     Generated by new atomic code, or converted to UPF format
     Using radial grid of 1321 points,  1 beta functions with:
                l(1) =   0

     PseudoPot. # 2 for H  read from file:
     ~/Documents/PWDFT.jl/pseudopotentials/scan_upf/H.SCAN.UPF
     MD5 check sum: Not computed, couldn't open file
     Pseudo is Norm-conserving, Zval =  1.0
     Generated by new atomic code, or converted to UPF format
     Using radial grid of 2419 points,  0 beta functions with:

     atomic species   valence    mass     pseudopotential
        Li             1.00     6.94100     Li( 1.00)
        H              1.00     1.00800     H ( 1.00)

     48 Sym. Ops., with inversion, found

   Cartesian axes

     site n.     atom                  positions (alat units)
         1           Li  tau(   1) = (   0.0000000   0.0000000   0.0000000  )
         2           H   tau(   2) = (   0.5000000   0.5000000   0.5000000  )

     number of k points=    47
                       cart. coord. in units 2pi/alat
        k(    1) = (   0.0000000   0.0000000   0.0000000), wk =   0.0020000
        k(    2) = (  -0.1000000   0.1000000  -0.1000000), wk =   0.0160000
        k(    3) = (  -0.2000000   0.2000000  -0.2000000), wk =   0.0160000
        k(    4) = (  -0.3000000   0.3000000  -0.3000000), wk =   0.0160000
        k(    5) = (  -0.4000000   0.4000000  -0.4000000), wk =   0.0160000
        k(    6) = (   0.5000000  -0.5000000   0.5000000), wk =   0.0080000
        k(    7) = (   0.0000000   0.2000000   0.0000000), wk =   0.0120000
        k(    8) = (  -0.1000000   0.3000000  -0.1000000), wk =   0.0480000
        k(    9) = (  -0.2000000   0.4000000  -0.2000000), wk =   0.0480000
        k(   10) = (  -0.3000000   0.5000000  -0.3000000), wk =   0.0480000
        k(   11) = (   0.6000000  -0.4000000   0.6000000), wk =   0.0480000
        k(   12) = (   0.5000000  -0.3000000   0.5000000), wk =   0.0480000
        k(   13) = (   0.4000000  -0.2000000   0.4000000), wk =   0.0480000
        k(   14) = (   0.3000000  -0.1000000   0.3000000), wk =   0.0480000
        k(   15) = (   0.2000000   0.0000000   0.2000000), wk =   0.0240000
        k(   16) = (   0.0000000   0.4000000   0.0000000), wk =   0.0120000
        k(   17) = (  -0.1000000   0.5000000  -0.1000000), wk =   0.0480000
        k(   18) = (  -0.2000000   0.6000000  -0.2000000), wk =   0.0480000
        k(   19) = (   0.7000000  -0.3000000   0.7000000), wk =   0.0480000
        k(   20) = (   0.6000000  -0.2000000   0.6000000), wk =   0.0480000
        k(   21) = (   0.5000000  -0.1000000   0.5000000), wk =   0.0480000
        k(   22) = (   0.4000000   0.0000000   0.4000000), wk =   0.0240000
        k(   23) = (   0.0000000   0.6000000   0.0000000), wk =   0.0120000
        k(   24) = (  -0.1000000   0.7000000  -0.1000000), wk =   0.0480000
        k(   25) = (   0.8000000  -0.2000000   0.8000000), wk =   0.0480000
        k(   26) = (   0.7000000  -0.1000000   0.7000000), wk =   0.0480000
        k(   27) = (   0.6000000  -0.0000000   0.6000000), wk =   0.0240000
        k(   28) = (   0.0000000   0.8000000   0.0000000), wk =   0.0120000
        k(   29) = (   0.9000000  -0.1000000   0.9000000), wk =   0.0480000
        k(   30) = (   0.8000000   0.0000000   0.8000000), wk =   0.0240000
        k(   31) = (   0.0000000  -1.0000000   0.0000000), wk =   0.0060000
        k(   32) = (  -0.2000000   0.4000000   0.0000000), wk =   0.0480000
        k(   33) = (  -0.3000000   0.5000000  -0.1000000), wk =   0.0960000
        k(   34) = (   0.6000000  -0.4000000   0.8000000), wk =   0.0960000
        k(   35) = (   0.5000000  -0.3000000   0.7000000), wk =   0.0480000
        k(   36) = (  -0.2000000   0.6000000   0.0000000), wk =   0.0480000
        k(   37) = (   0.7000000  -0.3000000   0.9000000), wk =   0.0960000
        k(   38) = (   0.6000000  -0.2000000   0.8000000), wk =   0.0960000
        k(   39) = (   0.5000000  -0.1000000   0.7000000), wk =   0.0960000
        k(   40) = (   0.4000000   0.0000000   0.6000000), wk =   0.0480000
        k(   41) = (   0.8000000  -0.2000000   1.0000000), wk =   0.0480000
        k(   42) = (   0.7000000  -0.1000000   0.9000000), wk =   0.0960000
        k(   43) = (   0.6000000   0.0000000   0.8000000), wk =   0.0480000
        k(   44) = (  -0.2000000  -1.0000000   0.0000000), wk =   0.0240000
        k(   45) = (   0.6000000  -0.2000000   1.0000000), wk =   0.0480000
        k(   46) = (   0.5000000  -0.1000000   0.9000000), wk =   0.0480000
        k(   47) = (  -0.4000000  -1.0000000   0.0000000), wk =   0.0240000

      on external parameters: check the user_guide of
      QE if you need to modify them or to check their
      default values.

     Initial potential from superposition of free atoms

     starting charge       1.9953, renormalised to       2.0000
     Starting wfcs are    4 randomized atomic wfcs

     Self-consistent Calculation

     iteration #  1     ecut=    50.00 Ry     beta= 0.01
     Davidson diagonalization with overlap
     ethr =  1.00E-02,  avg # of iterations =  4.0

     total energy              =      -1.66038949 Ry
     estimated scf accuracy    <       0.03933664 Ry

[...]

     End of self-consistent calculation

          k = 0.0000 0.0000 0.0000 (  1639 PWs)   bands (ev):

    -5.3864

          k =-0.1000 0.1000-0.1000 (  1606 PWs)   bands (ev):

[...]

     highest occupied level (ev):    -2.6942

!    total energy              =      -1.66975474 Ry
     estimated scf accuracy    <       0.00000029 Ry

     The total energy is the sum of the following terms:
     one-electron contribution =       0.06536172 Ry
     hartree contribution      =       0.35423443 Ry
     xc contribution           =      -0.98352613 Ry
     ewald contribution        =      -1.10582475 Ry

     convergence has been achieved in  28 iterations
     Writing meta-gga kinetic term

     Forces acting on atoms (cartesian axes, Ry/au):

     atom    1 type  1   force =    -0.00000000   -0.00000000   -0.00000000
     atom    2 type  2   force =     0.00000000    0.00000000    0.00000000

     Total force =     0.000000     Total SCF correction =     0.000000

     Computing stress (Cartesian axis) and pressure

          total   stress  (Ry/bohr**3)                   (kbar)     P=      -74.60
  -0.00050712   0.00000000   0.00000000          -74.60        0.00        0.00
   0.00000000  -0.00050712  -0.00000000            0.00      -74.60       -0.00
   0.00000000  -0.00000000  -0.00050712            0.00       -0.00      -74.60

     BFGS Geometry Optimization
     Energy error            =      0.0E+00 Ry
     Gradient error          =      1.0E-32 Ry/Bohr
     Cell gradient error     =      7.5E+01 kbar

     number of scf cycles    =   1
     number of bfgs steps    =   0

     enthalpy           new  =      -1.6697547405 Ry

     new trust radius        =       0.0416842760 bohr
     new conv_thr            =       0.0000010000 Ry

     new unit-cell volume =    260.10697 a.u.^3 (    38.54388 Ang^3 )
     density =      0.34246 g/cm^3

CELL_PARAMETERS (alat= 10.26310000)
  -0.493660946  -0.000000000   0.493660946
   0.000000000   0.493660946   0.493660946
  -0.493660946   0.493660946  -0.000000000

ATOMIC_POSITIONS (alat)
Li           -0.0000000000       -0.0000000000       -0.0000000000
H             0.4936609464        0.4936609464        0.4936609464

     Writing config-only to output data dir ./pwscf.save/
     NEW-OLD atomic charge density approx. for the potential
     extrapolated charge    1.92214, renormalised to    2.00000

[...]

     Energy error            =      5.2E-03 Ry
     Gradient error          =      8.3E-33 Ry/Bohr
     Cell gradient error     =      7.6E+01 kbar

[...]

     enthalpy           old  =      -1.6697547405 Ry
     enthalpy           new  =      -1.6749443629 Ry

     CASE: enthalpy          _new < enthalpy          _old

     WARNING: bfgs curvature condition failed, Theta= 0.808
     new trust radius        =       0.0621287914 bohr
     new conv_thr            =       0.0000000100 Ry

[...]

     Writing config-only to output data dir ./pwscf.save/
     NEW-OLD atomic charge density approx. for the potential

     negative rho (up,down):  8.791E-06 0.000E+00
     extrapolated charge    1.50221, renormalised to    2.00000

[...]

     negative rho (up,down):  1.141E-05 0.000E+00

[...]

     Writing config-only to output data dir ./pwscf.save/
     NEW-OLD atomic charge density approx. for the potential

     negative rho (up,down):  1.398E-04 0.000E+00
     extrapolated charge    1.11083, renormalised to    2.00000

[...]

     iteration #  1     ecut=    50.00 Ry     beta= 0.01
     Davidson diagonalization with overlap
     c_bands:  1 eigenvalues not converged
     c_bands:  1 eigenvalues not converged
     c_bands:  1 eigenvalues not converged
     c_bands:  1 eigenvalues not converged
     c_bands:  1 eigenvalues not converged
     c_bands:  1 eigenvalues not converged
     c_bands:  1 eigenvalues not converged
     c_bands:  1 eigenvalues not converged
     c_bands:  1 eigenvalues not converged
     c_bands:  1 eigenvalues not converged
     c_bands:  1 eigenvalues not converged
     c_bands:  1 eigenvalues not converged
     c_bands:  1 eigenvalues not converged
     c_bands:  1 eigenvalues not converged
     c_bands:  1 eigenvalues not converged
     c_bands:  1 eigenvalues not converged
     c_bands:  1 eigenvalues not converged
     c_bands:  1 eigenvalues not converged
     c_bands:  1 eigenvalues not converged
     c_bands:  1 eigenvalues not converged
     c_bands:  1 eigenvalues not converged
     c_bands:  1 eigenvalues not converged
     c_bands:  1 eigenvalues not converged
     c_bands:  1 eigenvalues not converged
     c_bands:  1 eigenvalues not converged
     c_bands:  1 eigenvalues not converged
     c_bands:  1 eigenvalues not converged
     c_bands:  1 eigenvalues not converged
     c_bands:  1 eigenvalues not converged
     c_bands:  1 eigenvalues not converged
     c_bands:  1 eigenvalues not converged
     c_bands:  1 eigenvalues not converged
     c_bands:  1 eigenvalues not converged
     c_bands:  1 eigenvalues not converged
     c_bands:  1 eigenvalues not converged
     c_bands:  1 eigenvalues not converged
     c_bands:  1 eigenvalues not converged
     c_bands:  1 eigenvalues not converged
     c_bands:  1 eigenvalues not converged
     c_bands:  1 eigenvalues not converged
     c_bands:  1 eigenvalues not converged
     c_bands:  1 eigenvalues not converged
     c_bands:  1 eigenvalues not converged
     c_bands:  1 eigenvalues not converged
     c_bands:  1 eigenvalues not converged
     c_bands:  1 eigenvalues not converged
     c_bands:  1 eigenvalues not converged
     ethr =  1.00E-06,  avg # of iterations = 20.0

[...]

     negative rho (up,down):  3.869E-07 0.000E+00

[...]

     number of scf cycles    =   8
     number of bfgs steps    =   7

     enthalpy           old  =      -1.7438638869 Ry
     enthalpy           new  =      -1.7438962453 Ry

     CASE: enthalpy          _new < enthalpy          _old

     new trust radius        =       0.0082802586 bohr
     new conv_thr            =       0.0000000100 Ry

     new unit-cell volume =    110.29243 a.u.^3 (    16.34365 Ang^3 )
     density =      0.80763 g/cm^3

[...]

ATOMIC_POSITIONS (alat)
Li           -0.0000000000       -0.0000000000       -0.0000000000
H             0.3708742495        0.3708742495        0.3708742495

     Writing config-only to output data dir ./pwscf.save/
     NEW-OLD atomic charge density approx. for the potential
     extrapolated charge    1.97636, renormalised to    2.00000

[...]

     Energy error            =      2.2E-05 Ry
     Gradient error          =      2.9E-31 Ry/Bohr
     Cell gradient error     =      4.3E-01 kbar

     bfgs converged in   9 scf cycles and   8 bfgs steps
     (criteria: energy <  1.0E-04 Ry, force <  1.0E-03Ry/Bohr, cell <  5.0E-01kbar)

     End of BFGS Geometry Optimization

     Final enthalpy           =      -1.7439180191 Ry

     File ./pwscf.bfgs deleted, as requested
Begin final coordinates
     new unit-cell volume =    110.29243 a.u.^3 (    16.34365 Ang^3 )
     density =      0.80763 g/cm^3

CELL_PARAMETERS (alat= 10.26310000)
  -0.370874249  -0.000000000   0.370874249
   0.000000000   0.370874249   0.370874249
  -0.370874249   0.370874249  -0.000000000

ATOMIC_POSITIONS (alat)
Li           -0.0000000000       -0.0000000000       -0.0000000000
H             0.3708742495        0.3708742495        0.3708742495
End final coordinates

     Writing config-only to output data dir ./pwscf.save/

     Final scf calculation at the relaxed structure.
     The G-vectors are recalculated for the final unit cell
     Results may differ from those at the preceding step.

     Using Slab Decomposition

     bravais-lattice index     =            2
     lattice parameter (alat)  =      10.2631  a.u.
     unit-cell volume          =     110.2924 (a.u.)^3
     number of atoms/cell      =            2
     number of atomic types    =            2
     number of electrons       =         2.00
     number of Kohn-Sham states=            1
     kinetic-energy cutoff     =      50.0000  Ry
     charge density cutoff     =     200.0000  Ry
     scf convergence threshold =      1.0E-08
     mixing beta               =       0.0100
     number of iterations used =            8  local-TF  mixing
     press convergence thresh. =      5.0E-01
     Exchange-correlation=  SLA  PW   SCAN SCAN
                           (   0   0   0   0   0 263 267)

     celldm(1)=  10.263100  celldm(2)=   0.000000  celldm(3)=   0.000000
     celldm(4)=   0.000000  celldm(5)=   0.000000  celldm(6)=   0.000000

     crystal axes: (cart. coord. in units of alat)
               a(1) = (  -0.370874  -0.000000   0.370874 )
               a(2) = (   0.000000   0.370874   0.370874 )
               a(3) = (  -0.370874   0.370874  -0.000000 )

     reciprocal axes: (cart. coord. in units 2 pi/alat)
               b(1) = ( -1.348166 -1.348166  1.348166 )
               b(2) = (  1.348166  1.348166  1.348166 )
               b(3) = ( -1.348166  1.348166 -1.348166 )

     PseudoPot. # 1 for Li read from file:
     ~/Documents/PWDFT.jl/pseudopotentials/scan_upf/Li.SCAN.UPF
     MD5 check sum: Not computed, couldn't open file
     Pseudo is Norm-conserving, Zval =  1.0
     Generated by new atomic code, or converted to UPF format
     Using radial grid of 1321 points,  1 beta functions with:
                l(1) =   0

     PseudoPot. # 2 for H  read from file:
     ~/Documents/PWDFT.jl/pseudopotentials/scan_upf/H.SCAN.UPF
     MD5 check sum: Not computed, couldn't open file
     Pseudo is Norm-conserving, Zval =  1.0
     Generated by new atomic code, or converted to UPF format
     Using radial grid of 2419 points,  0 beta functions with:

     atomic species   valence    mass     pseudopotential
        Li             1.00     6.94100     Li( 1.00)
        H              1.00     1.00800     H ( 1.00)

     48 Sym. Ops., with inversion, found

   Cartesian axes

     site n.     atom                  positions (alat units)
         1           Li  tau(   1) = (  -0.0000000  -0.0000000  -0.0000000  )
         2           H   tau(   2) = (   0.3708742   0.3708742   0.3708742  )

     number of k points=    47
                       cart. coord. in units 2pi/alat
        k(    1) = (   0.0000000   0.0000000   0.0000000), wk =   0.0020000
        k(    2) = (  -0.1348166   0.1348166  -0.1348166), wk =   0.0160000
        k(    3) = (  -0.2696332   0.2696332  -0.2696332), wk =   0.0160000
        k(    4) = (  -0.4044498   0.4044498  -0.4044498), wk =   0.0160000
        k(    5) = (  -0.5392663   0.5392663  -0.5392663), wk =   0.0160000
        k(    6) = (   0.6740829  -0.6740829   0.6740829), wk =   0.0080000
        k(    7) = (   0.0000000   0.2696332   0.0000000), wk =   0.0120000
        k(    8) = (  -0.1348166   0.4044498  -0.1348166), wk =   0.0480000
        k(    9) = (  -0.2696332   0.5392663  -0.2696332), wk =   0.0480000
        k(   10) = (  -0.4044498   0.6740829  -0.4044498), wk =   0.0480000
        k(   11) = (   0.8088995  -0.5392663   0.8088995), wk =   0.0480000
        k(   12) = (   0.6740829  -0.4044498   0.6740829), wk =   0.0480000
        k(   13) = (   0.5392663  -0.2696332   0.5392663), wk =   0.0480000
        k(   14) = (   0.4044498  -0.1348166   0.4044498), wk =   0.0480000
        k(   15) = (   0.2696332  -0.0000000   0.2696332), wk =   0.0240000
        k(   16) = (   0.0000000   0.5392663   0.0000000), wk =   0.0120000
        k(   17) = (  -0.1348166   0.6740829  -0.1348166), wk =   0.0480000
        k(   18) = (  -0.2696332   0.8088995  -0.2696332), wk =   0.0480000
        k(   19) = (   0.9437161  -0.4044498   0.9437161), wk =   0.0480000
        k(   20) = (   0.8088995  -0.2696332   0.8088995), wk =   0.0480000
        k(   21) = (   0.6740829  -0.1348166   0.6740829), wk =   0.0480000
        k(   22) = (   0.5392663  -0.0000000   0.5392663), wk =   0.0240000
        k(   23) = (  -0.0000000   0.8088995   0.0000000), wk =   0.0120000
        k(   24) = (  -0.1348166   0.9437161  -0.1348166), wk =   0.0480000
        k(   25) = (   1.0785327  -0.2696332   1.0785327), wk =   0.0480000
        k(   26) = (   0.9437161  -0.1348166   0.9437161), wk =   0.0480000
        k(   27) = (   0.8088995  -0.0000000   0.8088995), wk =   0.0240000
        k(   28) = (   0.0000000   1.0785327   0.0000000), wk =   0.0120000
        k(   29) = (   1.2133493  -0.1348166   1.2133493), wk =   0.0480000
        k(   30) = (   1.0785327  -0.0000000   1.0785327), wk =   0.0240000
        k(   31) = (  -0.0000000  -1.3481659   0.0000000), wk =   0.0060000
        k(   32) = (  -0.2696332   0.5392663   0.0000000), wk =   0.0480000
        k(   33) = (  -0.4044498   0.6740829  -0.1348166), wk =   0.0960000
        k(   34) = (   0.8088995  -0.5392663   1.0785327), wk =   0.0960000
        k(   35) = (   0.6740829  -0.4044498   0.9437161), wk =   0.0480000
        k(   36) = (  -0.2696332   0.8088995   0.0000000), wk =   0.0480000
        k(   37) = (   0.9437161  -0.4044498   1.2133493), wk =   0.0960000
        k(   38) = (   0.8088995  -0.2696332   1.0785327), wk =   0.0960000
        k(   39) = (   0.6740829  -0.1348166   0.9437161), wk =   0.0960000
        k(   40) = (   0.5392663  -0.0000000   0.8088995), wk =   0.0480000
        k(   41) = (   1.0785327  -0.2696332   1.3481659), wk =   0.0480000
        k(   42) = (   0.9437161  -0.1348166   1.2133493), wk =   0.0960000
        k(   43) = (   0.8088995  -0.0000000   1.0785327), wk =   0.0480000
        k(   44) = (  -0.2696332  -1.3481659   0.0000000), wk =   0.0240000
        k(   45) = (   0.8088995  -0.2696332   1.3481659), wk =   0.0480000
        k(   46) = (   0.6740829  -0.1348166   1.2133493), wk =   0.0480000
        k(   47) = (  -0.5392663  -1.3481659   0.0000000), wk =   0.0240000

      on external parameters: check the user_guide of
      QE if you need to modify them or to check their
      default values.

     Initial potential from superposition of free atoms

     starting charge       1.9953, renormalised to       2.0000
     Starting wfcs are    4 randomized atomic wfcs

     Self-consistent Calculation

     iteration #  1     ecut=    50.00 Ry     beta= 0.01
     Davidson diagonalization with overlap
     c_bands:  1 eigenvalues not converged
     c_bands:  1 eigenvalues not converged
     ethr =  1.00E-06,  avg # of iterations = 10.7

[...]

     total energy              =      -1.73919219 Ry
     estimated scf accuracy    <       0.00000013 Ry

     iteration # 16     ecut=    50.00 Ry     beta= 0.01
     Davidson diagonalization with overlap
     ethr =  6.56E-09,  avg # of iterations =  1.6

     End of self-consistent calculation

[...]

          k = 0.6741-0.1348 1.2133 (   666 PWs)   bands (ev):

[...]

          k =-0.5393-1.3482 0.0000 (   670 PWs)   bands (ev):

    -0.3635

     highest occupied level (ev):    -0.1462

!    total energy              =      -1.73919221 Ry
     estimated scf accuracy    <          3.9E-09 Ry

     The total energy is the sum of the following terms:
     one-electron contribution =       0.64434072 Ry
     hartree contribution      =       0.25628907 Ry
     xc contribution           =      -1.14898682 Ry
     ewald contribution        =      -1.49083517 Ry

     convergence has been achieved in  16 iterations
     Writing meta-gga kinetic term

     Forces acting on atoms (cartesian axes, Ry/au):

     atom    1 type  1   force =    -0.00000000    0.00000000   -0.00000000
     atom    2 type  2   force =    -0.00000000   -0.00000000   -0.00000000

     Total force =     0.000000     Total SCF correction =     0.000000

     Computing stress (Cartesian axis) and pressure

          total   stress  (Ry/bohr**3)                   (kbar)     P=       -5.79
  -0.00003933   0.00000000   0.00000000           -5.79        0.00        0.00
   0.00000000  -0.00003933   0.00000000            0.00       -5.79        0.00
   0.00000000   0.00000000  -0.00003933            0.00        0.00       -5.79

     Writing all to output data dir ./pwscf.save/
     Writing meta-gga kinetic term

     General routines

     Parallel routines

   This run was terminated on:  14:38:23  18Feb2023

   JOB DONE.