     Program PWSCF v.7.0 starts on 18Feb2023 at 14:39:15

     Waiting for input...
     Reading input from standard input

     Current dimensions of program PWSCF are:
     Max number of different atomic species (ntypx) = 10
     Max number of k-points (npk) =  40000
     Max angular momentum in pseudopotentials (lmaxx) =  4
     file Cl.SCAN.UPF: wavefunction(s)  0D renormalized

     WARNING: the MGGA functional with ID    5 has been
     read together with other dft terms, but it should
     stand alone in order to work properly. The other
     terms will be ignored.

     WARNING: the MGGA functional with ID    5 has been
     read together with other dft terms, but it should
     stand alone in order to work properly. The other
     terms will be ignored.

     Subspace diagonalization in iterative solution of the eigenvalue problem:
     a serial algorithm will be used

     Using Slab Decomposition

     bravais-lattice index     =            2
     lattice parameter (alat)  =      10.2631  a.u.
     unit-cell volume          =     270.2562 (a.u.)^3
     number of atoms/cell      =            2
     number of atomic types    =            2
     number of electrons       =         8.00
     number of Kohn-Sham states=            4
     kinetic-energy cutoff     =      50.0000  Ry
     charge density cutoff     =     200.0000  Ry
     scf convergence threshold =      1.0E-06
     mixing beta               =       0.0100
     number of iterations used =            8  local-TF  mixing
     energy convergence thresh.=      1.0E-04
     force convergence thresh. =      1.0E-03
     press convergence thresh. =      5.0E-01
     Exchange-correlation=  SLA  PW   SCAN SCAN
                           (   0   0   0   0   0 263 267)
     nstep                     =           50

     celldm(1)=  10.263100  celldm(2)=   0.000000  celldm(3)=   0.000000
     celldm(4)=   0.000000  celldm(5)=   0.000000  celldm(6)=   0.000000

     crystal axes: (cart. coord. in units of alat)
               a(1) = (  -0.500000   0.000000   0.500000 )
               a(2) = (   0.000000   0.500000   0.500000 )
               a(3) = (  -0.500000   0.500000   0.000000 )

     reciprocal axes: (cart. coord. in units 2 pi/alat)
               b(1) = ( -1.000000 -1.000000  1.000000 )
               b(2) = (  1.000000  1.000000  1.000000 )
               b(3) = ( -1.000000  1.000000 -1.000000 )

     PseudoPot. # 1 for Li read from file:
     ~/Documents/PWDFT.jl/pseudopotentials/scan_upf/Li.SCAN.UPF
     MD5 check sum: Not computed, couldn't open file
     Pseudo is Norm-conserving, Zval =  1.0
     Generated by new atomic code, or converted to UPF format
     Using radial grid of 1321 points,  1 beta functions with:
                l(1) =   0

[...]

     atomic species   valence    mass     pseudopotential
        Li             1.00     6.94100     Li( 1.00)
        Cl             7.00    35.45300     Cl( 1.00)

     48 Sym. Ops., with inversion, found

   Cartesian axes

     site n.     atom                  positions (alat units)
         1           Li  tau(   1) = (   0.0000000   0.0000000   0.0000000  )
         2           Cl  tau(   2) = (   0.5000000   0.5000000   0.5000000  )

     number of k points=    47
                       cart. coord. in units 2pi/alat
        k(    1) = (   0.0000000   0.0000000   0.0000000), wk =   0.0020000
        k(    2) = (  -0.1000000   0.1000000  -0.1000000), wk =   0.0160000
        k(    3) = (  -0.2000000   0.2000000  -0.2000000), wk =   0.0160000
        k(    4) = (  -0.3000000   0.3000000  -0.3000000), wk =   0.0160000
        k(    5) = (  -0.4000000   0.4000000  -0.4000000), wk =   0.0160000
        k(    6) = (   0.5000000  -0.5000000   0.5000000), wk =   0.0080000
        k(    7) = (   0.0000000   0.2000000   0.0000000), wk =   0.0120000
        k(    8) = (  -0.1000000   0.3000000  -0.1000000), wk =   0.0480000
        k(    9) = (  -0.2000000   0.4000000  -0.2000000), wk =   0.0480000
        k(   10) = (  -0.3000000   0.5000000  -0.3000000), wk =   0.0480000
        k(   11) = (   0.6000000  -0.4000000   0.6000000), wk =   0.0480000
        k(   12) = (   0.5000000  -0.3000000   0.5000000), wk =   0.0480000
        k(   13) = (   0.4000000  -0.2000000   0.4000000), wk =   0.0480000
        k(   14) = (   0.3000000  -0.1000000   0.3000000), wk =   0.0480000
        k(   15) = (   0.2000000   0.0000000   0.2000000), wk =   0.0240000
        k(   16) = (   0.0000000   0.4000000   0.0000000), wk =   0.0120000
        k(   17) = (  -0.1000000   0.5000000  -0.1000000), wk =   0.0480000
        k(   18) = (  -0.2000000   0.6000000  -0.2000000), wk =   0.0480000
        k(   19) = (   0.7000000  -0.3000000   0.7000000), wk =   0.0480000
        k(   20) = (   0.6000000  -0.2000000   0.6000000), wk =   0.0480000
        k(   21) = (   0.5000000  -0.1000000   0.5000000), wk =   0.0480000
        k(   22) = (   0.4000000   0.0000000   0.4000000), wk =   0.0240000
        k(   23) = (   0.0000000   0.6000000   0.0000000), wk =   0.0120000
        k(   24) = (  -0.1000000   0.7000000  -0.1000000), wk =   0.0480000
        k(   25) = (   0.8000000  -0.2000000   0.8000000), wk =   0.0480000
        k(   26) = (   0.7000000  -0.1000000   0.7000000), wk =   0.0480000
        k(   27) = (   0.6000000  -0.0000000   0.6000000), wk =   0.0240000
        k(   28) = (   0.0000000   0.8000000   0.0000000), wk =   0.0120000
        k(   29) = (   0.9000000  -0.1000000   0.9000000), wk =   0.0480000
        k(   30) = (   0.8000000   0.0000000   0.8000000), wk =   0.0240000
        k(   31) = (   0.0000000  -1.0000000   0.0000000), wk =   0.0060000
        k(   32) = (  -0.2000000   0.4000000   0.0000000), wk =   0.0480000
        k(   33) = (  -0.3000000   0.5000000  -0.1000000), wk =   0.0960000
        k(   34) = (   0.6000000  -0.4000000   0.8000000), wk =   0.0960000
        k(   35) = (   0.5000000  -0.3000000   0.7000000), wk =   0.0480000
        k(   36) = (  -0.2000000   0.6000000   0.0000000), wk =   0.0480000
        k(   37) = (   0.7000000  -0.3000000   0.9000000), wk =   0.0960000
        k(   38) = (   0.6000000  -0.2000000   0.8000000), wk =   0.0960000
        k(   39) = (   0.5000000  -0.1000000   0.7000000), wk =   0.0960000
        k(   40) = (   0.4000000   0.0000000   0.6000000), wk =   0.0480000
        k(   41) = (   0.8000000  -0.2000000   1.0000000), wk =   0.0480000
        k(   42) = (   0.7000000  -0.1000000   0.9000000), wk =   0.0960000
        k(   43) = (   0.6000000   0.0000000   0.8000000), wk =   0.0480000
        k(   44) = (  -0.2000000  -1.0000000   0.0000000), wk =   0.0240000
        k(   45) = (   0.6000000  -0.2000000   1.0000000), wk =   0.0480000
        k(   46) = (   0.5000000  -0.1000000   0.9000000), wk =   0.0480000
        k(   47) = (  -0.4000000  -1.0000000   0.0000000), wk =   0.0240000

      on external parameters: check the user_guide of
      QE if you need to modify them or to check their
      default values.

     Initial potential from superposition of free atoms

     starting charge       7.9953, renormalised to       8.0000
     Starting wfcs are   13 randomized atomic wfcs

     Self-consistent Calculation

     iteration #  1     ecut=    50.00 Ry     beta= 0.01
     Davidson diagonalization with overlap
     ethr =  1.00E-02,  avg # of iterations =  1.0

     total energy              =     -30.65670906 Ry
     estimated scf accuracy    <       0.35669091 Ry

[...]

     End of self-consistent calculation

          k = 0.0000 0.0000 0.0000 (  1639 PWs)   bands (ev):

   -13.6204  -0.2757  -0.2757  -0.2757

          k =-0.1000 0.1000-0.1000 (  1606 PWs)   bands (ev):

[...]

     highest occupied level (ev):    -0.2757

!    total energy              =     -30.74115246 Ry
     estimated scf accuracy    <       0.00000029 Ry

     The total energy is the sum of the following terms:
     one-electron contribution =      -7.24196413 Ry
     hartree contribution      =       6.63368103 Ry
     xc contribution           =      -6.30971995 Ry
     ewald contribution        =     -23.82314940 Ry

     convergence has been achieved in  13 iterations
     Writing meta-gga kinetic term

     Forces acting on atoms (cartesian axes, Ry/au):

     atom    1 type  1   force =     0.00000000    0.00000000    0.00000000
     atom    2 type  2   force =     0.00000000    0.00000000   -0.00000000

     Total force =     0.000000     Total SCF correction =     0.000000

     Computing stress (Cartesian axis) and pressure

          total   stress  (Ry/bohr**3)                   (kbar)     P=      -30.10
  -0.00020461  -0.00000000   0.00000000          -30.10       -0.00        0.00
  -0.00000000  -0.00020461   0.00000000           -0.00      -30.10        0.00
   0.00000000   0.00000000  -0.00020461            0.00        0.00      -30.10

     BFGS Geometry Optimization
     Energy error            =      0.0E+00 Ry
     Gradient error          =      2.7E-32 Ry/Bohr
     Cell gradient error     =      3.0E+01 kbar

     number of scf cycles    =   1
     number of bfgs steps    =   0

     enthalpy           new  =     -30.7411524600 Ry

     new trust radius        =       0.0168185057 bohr
     new conv_thr            =       0.0000010000 Ry

     new unit-cell volume =    266.13008 a.u.^3 (    39.43641 Ang^3 )
     density =      1.78507 g/cm^3

CELL_PARAMETERS (alat= 10.26310000)
  -0.497442359   0.000000000   0.497442359
   0.000000000   0.497442359   0.497442359
  -0.497442359   0.497442359  -0.000000000

ATOMIC_POSITIONS (alat)
Li            0.0000000000        0.0000000000        0.0000000000
Cl            0.4974423591        0.4974423591        0.4974423591

     Writing config-only to output data dir ./pwscf.save/
     NEW-OLD atomic charge density approx. for the potential
     extrapolated charge    7.87604, renormalised to    8.00000

[...]

     Energy error            =      8.1E-04 Ry
     Gradient error          =      1.1E-30 Ry/Bohr
     Cell gradient error     =      2.8E+01 kbar

[...]

     enthalpy           old  =     -30.7411524600 Ry
     enthalpy           new  =     -30.7419653365 Ry

     CASE: enthalpy          _new < enthalpy          _old

     WARNING: bfgs curvature condition failed, Theta= 0.881
     new trust radius        =       0.0251631523 bohr
     new conv_thr            =       0.0000000100 Ry

[...]

     number of scf cycles    =   5
     number of bfgs steps    =   4

     enthalpy           old  =     -30.7440986943 Ry
     enthalpy           new  =     -30.7446403691 Ry

     CASE: enthalpy          _new < enthalpy          _old

     new trust radius        =       0.0071802145 bohr
     new conv_thr            =       0.0000000100 Ry

     new unit-cell volume =    239.65434 a.u.^3 (    35.51311 Ang^3 )
     density =      1.98228 g/cm^3

[...]

ATOMIC_POSITIONS (alat)
Li           -0.0000000000       -0.0000000000       -0.0000000000
Cl            0.4803670462        0.4803670462        0.4803670462

     Writing config-only to output data dir ./pwscf.save/
     NEW-OLD atomic charge density approx. for the potential
     extrapolated charge    8.05556, renormalised to    8.00000

[...]

     Energy error            =      1.1E-05 Ry
     Gradient error          =      2.7E-31 Ry/Bohr
     Cell gradient error     =      1.9E-01 kbar

     bfgs converged in   6 scf cycles and   5 bfgs steps
     (criteria: energy <  1.0E-04 Ry, force <  1.0E-03Ry/Bohr, cell <  5.0E-01kbar)

     End of BFGS Geometry Optimization

     Final enthalpy           =     -30.7446514522 Ry

     File ./pwscf.bfgs deleted, as requested
Begin final coordinates
     new unit-cell volume =    239.65434 a.u.^3 (    35.51311 Ang^3 )
     density =      1.98228 g/cm^3

CELL_PARAMETERS (alat= 10.26310000)
  -0.480367046   0.000000000   0.480367046
   0.000000000   0.480367046   0.480367046
  -0.480367046   0.480367046  -0.000000000

ATOMIC_POSITIONS (alat)
Li           -0.0000000000       -0.0000000000       -0.0000000000
Cl            0.4803670462        0.4803670462        0.4803670462
End final coordinates

     Writing config-only to output data dir ./pwscf.save/

     Final scf calculation at the relaxed structure.
     The G-vectors are recalculated for the final unit cell
     Results may differ from those at the preceding step.

     Using Slab Decomposition

     bravais-lattice index     =            2
     lattice parameter (alat)  =      10.2631  a.u.
     unit-cell volume          =     239.6543 (a.u.)^3
     number of atoms/cell      =            2
     number of atomic types    =            2
     number of electrons       =         8.00
     number of Kohn-Sham states=            4
     kinetic-energy cutoff     =      50.0000  Ry
     charge density cutoff     =     200.0000  Ry
     scf convergence threshold =      1.0E-08
     mixing beta               =       0.0100
     number of iterations used =            8  local-TF  mixing
     press convergence thresh. =      5.0E-01
     Exchange-correlation=  SLA  PW   SCAN SCAN
                           (   0   0   0   0   0 263 267)

     celldm(1)=  10.263100  celldm(2)=   0.000000  celldm(3)=   0.000000
     celldm(4)=   0.000000  celldm(5)=   0.000000  celldm(6)=   0.000000

     crystal axes: (cart. coord. in units of alat)
               a(1) = (  -0.480367   0.000000   0.480367 )
               a(2) = (   0.000000   0.480367   0.480367 )
               a(3) = (  -0.480367   0.480367  -0.000000 )

     reciprocal axes: (cart. coord. in units 2 pi/alat)
               b(1) = ( -1.040871 -1.040871  1.040871 )
               b(2) = (  1.040871  1.040871  1.040871 )
               b(3) = ( -1.040871  1.040871 -1.040871 )

[...]

     PseudoPot. # 2 for Cl read from file:
     ~/Documents/PWDFT.jl/pseudopotentials/scan_upf/Cl.SCAN.UPF
     MD5 check sum: Not computed, couldn't open file
     Pseudo is Norm-conserving, Zval =  7.0
     Generated by new atomic code, or converted to UPF format
     Using radial grid of 1493 points,  2 beta functions with:
                l(1) =   0
                l(2) =   1

     atomic species   valence    mass     pseudopotential
        Li             1.00     6.94100     Li( 1.00)
        Cl             7.00    35.45300     Cl( 1.00)

     48 Sym. Ops., with inversion, found

   Cartesian axes

     site n.     atom                  positions (alat units)
         1           Li  tau(   1) = (  -0.0000000  -0.0000000  -0.0000000  )
         2           Cl  tau(   2) = (   0.4803670   0.4803670   0.4803670  )

     number of k points=    47
                       cart. coord. in units 2pi/alat
        k(    1) = (   0.0000000   0.0000000   0.0000000), wk =   0.0020000
        k(    2) = (  -0.1040871   0.1040871  -0.1040871), wk =   0.0160000
        k(    3) = (  -0.2081741   0.2081741  -0.2081741), wk =   0.0160000
        k(    4) = (  -0.3122612   0.3122612  -0.3122612), wk =   0.0160000
        k(    5) = (  -0.4163483   0.4163483  -0.4163483), wk =   0.0160000
        k(    6) = (   0.5204354  -0.5204354   0.5204354), wk =   0.0080000
        k(    7) = (   0.0000000   0.2081741   0.0000000), wk =   0.0120000
        k(    8) = (  -0.1040871   0.3122612  -0.1040871), wk =   0.0480000
        k(    9) = (  -0.2081741   0.4163483  -0.2081741), wk =   0.0480000
        k(   10) = (  -0.3122612   0.5204354  -0.3122612), wk =   0.0480000
        k(   11) = (   0.6245224  -0.4163483   0.6245224), wk =   0.0480000
        k(   12) = (   0.5204354  -0.3122612   0.5204354), wk =   0.0480000
        k(   13) = (   0.4163483  -0.2081741   0.4163483), wk =   0.0480000
        k(   14) = (   0.3122612  -0.1040871   0.3122612), wk =   0.0480000
        k(   15) = (   0.2081741   0.0000000   0.2081741), wk =   0.0240000
        k(   16) = (   0.0000000   0.4163483   0.0000000), wk =   0.0120000
        k(   17) = (  -0.1040871   0.5204354  -0.1040871), wk =   0.0480000
        k(   18) = (  -0.2081741   0.6245224  -0.2081741), wk =   0.0480000
        k(   19) = (   0.7286095  -0.3122612   0.7286095), wk =   0.0480000
        k(   20) = (   0.6245224  -0.2081741   0.6245224), wk =   0.0480000
        k(   21) = (   0.5204354  -0.1040871   0.5204354), wk =   0.0480000
        k(   22) = (   0.4163483   0.0000000   0.4163483), wk =   0.0240000
        k(   23) = (   0.0000000   0.6245224   0.0000000), wk =   0.0120000
        k(   24) = (  -0.1040871   0.7286095  -0.1040871), wk =   0.0480000
        k(   25) = (   0.8326966  -0.2081741   0.8326966), wk =   0.0480000
        k(   26) = (   0.7286095  -0.1040871   0.7286095), wk =   0.0480000
        k(   27) = (   0.6245224   0.0000000   0.6245224), wk =   0.0240000
        k(   28) = (   0.0000000   0.8326966   0.0000000), wk =   0.0120000
        k(   29) = (   0.9367837  -0.1040871   0.9367837), wk =   0.0480000
        k(   30) = (   0.8326966   0.0000000   0.8326966), wk =   0.0240000
        k(   31) = (   0.0000000  -1.0408707   0.0000000), wk =   0.0060000
        k(   32) = (  -0.2081741   0.4163483   0.0000000), wk =   0.0480000
        k(   33) = (  -0.3122612   0.5204354  -0.1040871), wk =   0.0960000
        k(   34) = (   0.6245224  -0.4163483   0.8326966), wk =   0.0960000
        k(   35) = (   0.5204354  -0.3122612   0.7286095), wk =   0.0480000
        k(   36) = (  -0.2081741   0.6245224   0.0000000), wk =   0.0480000
        k(   37) = (   0.7286095  -0.3122612   0.9367837), wk =   0.0960000
        k(   38) = (   0.6245224  -0.2081741   0.8326966), wk =   0.0960000
        k(   39) = (   0.5204354  -0.1040871   0.7286095), wk =   0.0960000
        k(   40) = (   0.4163483   0.0000000   0.6245224), wk =   0.0480000
        k(   41) = (   0.8326966  -0.2081741   1.0408707), wk =   0.0480000
        k(   42) = (   0.7286095  -0.1040871   0.9367837), wk =   0.0960000
        k(   43) = (   0.6245224   0.0000000   0.8326966), wk =   0.0480000
        k(   44) = (  -0.2081741  -1.0408707   0.0000000), wk =   0.0240000
        k(   45) = (   0.6245224  -0.2081741   1.0408707), wk =   0.0480000
        k(   46) = (   0.5204354  -0.1040871   0.9367837), wk =   0.0480000
        k(   47) = (  -0.4163483  -1.0408707   0.0000000), wk =   0.0240000

      on external parameters: check the user_guide of
      QE if you need to modify them or to check their
      default values.

     Initial potential from superposition of free atoms

     starting charge       7.9953, renormalised to       8.0000
     Starting wfcs are   13 randomized atomic wfcs

     Self-consistent Calculation

[...]

     total energy              =     -30.74446167 Ry
     estimated scf accuracy    <       0.00000065 Ry

     iteration # 20     ecut=    50.00 Ry     beta= 0.01
     Davidson diagonalization with overlap
     ethr =  6.95E-09,  avg # of iterations =  2.0

     End of self-consistent calculation

[...]

          k = 0.5204-0.1041 0.9368 (  1434 PWs)   bands (ev):

[...]

          k =-0.4163-1.0409 0.0000 (  1436 PWs)   bands (ev):

   -12.3360  -1.6089  -1.1056  -0.4007

     highest occupied level (ev):     0.5964

!    total energy              =     -30.74446177 Ry
     estimated scf accuracy    <          4.1E-09 Ry

     The total energy is the sum of the following terms:
     one-electron contribution =      -5.66193845 Ry
     hartree contribution      =       6.06028755 Ry
     xc contribution           =      -6.34599186 Ry
     ewald contribution        =     -24.79681900 Ry

     convergence has been achieved in  20 iterations
     Writing meta-gga kinetic term

     Forces acting on atoms (cartesian axes, Ry/au):

     atom    1 type  1   force =     0.00000000    0.00000000    0.00000000
     atom    2 type  2   force =    -0.00000000   -0.00000000   -0.00000000

     Total force =     0.000000     Total SCF correction =     0.000000

     Computing stress (Cartesian axis) and pressure

          total   stress  (Ry/bohr**3)                   (kbar)     P=       -2.07
  -0.00001409  -0.00000000   0.00000000           -2.07       -0.00        0.00
   0.00000000  -0.00001409   0.00000000            0.00       -2.07        0.00
   0.00000000  -0.00000000  -0.00001409            0.00       -0.00       -2.07

     Writing all to output data dir ./pwscf.save/
     Writing meta-gga kinetic term

     General routines

     Parallel routines

   This run was terminated on:  14:41:26  18Feb2023

   JOB DONE.