     Program PWSCF v.7.0 starts on 19Feb2023 at 20:30:24

     Waiting for input...
     Reading input from standard input

     Current dimensions of program PWSCF are:
     Max number of different atomic species (ntypx) = 10
     Max number of k-points (npk) =  40000
     Max angular momentum in pseudopotentials (lmaxx) =  4
     file Al.SCAN.UPF: wavefunction(s)  0D renormalized

     WARNING: the MGGA functional with ID    5 has been
     read together with other dft terms, but it should
     stand alone in order to work properly. The other
     terms will be ignored.

     Subspace diagonalization in iterative solution of the eigenvalue problem:
     a serial algorithm will be used

     Using Slab Decomposition

     bravais-lattice index     =            2
     lattice parameter (alat)  =      10.2631  a.u.
     unit-cell volume          =     270.2562 (a.u.)^3
     number of atoms/cell      =            1
     number of atomic types    =            1
     number of electrons       =         3.00
     number of Kohn-Sham states=            6
     kinetic-energy cutoff     =      50.0000  Ry
     charge density cutoff     =     200.0000  Ry
     scf convergence threshold =      1.0E-06
     mixing beta               =       0.0100
     number of iterations used =            8  local-TF  mixing
     energy convergence thresh.=      1.0E-04
     force convergence thresh. =      1.0E-03
     press convergence thresh. =      5.0E-01
     Exchange-correlation=  SLA  PW   SCAN SCAN
                           (   0   0   0   0   0 263 267)
     nstep                     =           50

     celldm(1)=  10.263100  celldm(2)=   0.000000  celldm(3)=   0.000000
     celldm(4)=   0.000000  celldm(5)=   0.000000  celldm(6)=   0.000000

     crystal axes: (cart. coord. in units of alat)
               a(1) = (  -0.500000   0.000000   0.500000 )
               a(2) = (   0.000000   0.500000   0.500000 )
               a(3) = (  -0.500000   0.500000   0.000000 )

     reciprocal axes: (cart. coord. in units 2 pi/alat)
               b(1) = ( -1.000000 -1.000000  1.000000 )
               b(2) = (  1.000000  1.000000  1.000000 )
               b(3) = ( -1.000000  1.000000 -1.000000 )

     PseudoPot. # 1 for Al read from file:
     ~/Documents/PWDFT.jl/pseudopotentials/scan_upf/Al.SCAN.UPF
     MD5 check sum: Not computed, couldn't open file
     Pseudo is Norm-conserving, Zval =  3.0
     Generated by new atomic code, or converted to UPF format
     Using radial grid of 1467 points,  2 beta functions with:
                l(1) =   0
                l(2) =   1

     atomic species   valence    mass     pseudopotential
        Al             3.00    26.98154     Al( 1.00)

     48 Sym. Ops., with inversion, found

   Cartesian axes

     site n.     atom                  positions (alat units)
         1           Al  tau(   1) = (   0.0000000   0.0000000   0.0000000  )

     number of k points=    47  Gaussian smearing, width (Ry)=  0.1000
                       cart. coord. in units 2pi/alat
        k(    1) = (   0.0000000   0.0000000   0.0000000), wk =   0.0020000
        k(    2) = (  -0.1000000   0.1000000  -0.1000000), wk =   0.0160000
        k(    3) = (  -0.2000000   0.2000000  -0.2000000), wk =   0.0160000
        k(    4) = (  -0.3000000   0.3000000  -0.3000000), wk =   0.0160000
        k(    5) = (  -0.4000000   0.4000000  -0.4000000), wk =   0.0160000
        k(    6) = (   0.5000000  -0.5000000   0.5000000), wk =   0.0080000
        k(    7) = (   0.0000000   0.2000000   0.0000000), wk =   0.0120000
        k(    8) = (  -0.1000000   0.3000000  -0.1000000), wk =   0.0480000
        k(    9) = (  -0.2000000   0.4000000  -0.2000000), wk =   0.0480000
        k(   10) = (  -0.3000000   0.5000000  -0.3000000), wk =   0.0480000
        k(   11) = (   0.6000000  -0.4000000   0.6000000), wk =   0.0480000
        k(   12) = (   0.5000000  -0.3000000   0.5000000), wk =   0.0480000
        k(   13) = (   0.4000000  -0.2000000   0.4000000), wk =   0.0480000
        k(   14) = (   0.3000000  -0.1000000   0.3000000), wk =   0.0480000
        k(   15) = (   0.2000000   0.0000000   0.2000000), wk =   0.0240000
        k(   16) = (   0.0000000   0.4000000   0.0000000), wk =   0.0120000
        k(   17) = (  -0.1000000   0.5000000  -0.1000000), wk =   0.0480000
        k(   18) = (  -0.2000000   0.6000000  -0.2000000), wk =   0.0480000
        k(   19) = (   0.7000000  -0.3000000   0.7000000), wk =   0.0480000
        k(   20) = (   0.6000000  -0.2000000   0.6000000), wk =   0.0480000
        k(   21) = (   0.5000000  -0.1000000   0.5000000), wk =   0.0480000
        k(   22) = (   0.4000000   0.0000000   0.4000000), wk =   0.0240000
        k(   23) = (   0.0000000   0.6000000   0.0000000), wk =   0.0120000
        k(   24) = (  -0.1000000   0.7000000  -0.1000000), wk =   0.0480000
        k(   25) = (   0.8000000  -0.2000000   0.8000000), wk =   0.0480000
        k(   26) = (   0.7000000  -0.1000000   0.7000000), wk =   0.0480000
        k(   27) = (   0.6000000  -0.0000000   0.6000000), wk =   0.0240000
        k(   28) = (   0.0000000   0.8000000   0.0000000), wk =   0.0120000
        k(   29) = (   0.9000000  -0.1000000   0.9000000), wk =   0.0480000
        k(   30) = (   0.8000000   0.0000000   0.8000000), wk =   0.0240000
        k(   31) = (   0.0000000  -1.0000000   0.0000000), wk =   0.0060000
        k(   32) = (  -0.2000000   0.4000000   0.0000000), wk =   0.0480000
        k(   33) = (  -0.3000000   0.5000000  -0.1000000), wk =   0.0960000
        k(   34) = (   0.6000000  -0.4000000   0.8000000), wk =   0.0960000
        k(   35) = (   0.5000000  -0.3000000   0.7000000), wk =   0.0480000
        k(   36) = (  -0.2000000   0.6000000   0.0000000), wk =   0.0480000
        k(   37) = (   0.7000000  -0.3000000   0.9000000), wk =   0.0960000
        k(   38) = (   0.6000000  -0.2000000   0.8000000), wk =   0.0960000
        k(   39) = (   0.5000000  -0.1000000   0.7000000), wk =   0.0960000
        k(   40) = (   0.4000000   0.0000000   0.6000000), wk =   0.0480000
        k(   41) = (   0.8000000  -0.2000000   1.0000000), wk =   0.0480000
        k(   42) = (   0.7000000  -0.1000000   0.9000000), wk =   0.0960000
        k(   43) = (   0.6000000   0.0000000   0.8000000), wk =   0.0480000
        k(   44) = (  -0.2000000  -1.0000000   0.0000000), wk =   0.0240000
        k(   45) = (   0.6000000  -0.2000000   1.0000000), wk =   0.0480000
        k(   46) = (   0.5000000  -0.1000000   0.9000000), wk =   0.0480000
        k(   47) = (  -0.4000000  -1.0000000   0.0000000), wk =   0.0240000

      on external parameters: check the user_guide of
      QE if you need to modify them or to check their
      default values.

     Initial potential from superposition of free atoms

     starting charge       2.9979, renormalised to       3.0000
     Starting wfcs are    9 randomized atomic wfcs

     Self-consistent Calculation

     iteration #  1     ecut=    50.00 Ry     beta= 0.01
     Davidson diagonalization with overlap
     ethr =  1.00E-02,  avg # of iterations =  3.0

     Threshold (ethr) on eigenvalues was too large:
     Diagonalizing with lowered threshold

     Davidson diagonalization with overlap
     ethr =  1.40E-04,  avg # of iterations =  2.3

     total energy              =      -4.05223054 Ry
     estimated scf accuracy    <       0.00407763 Ry

[...]

     End of self-consistent calculation

          k = 0.0000 0.0000 0.0000 (  1639 PWs)   bands (ev):

    -5.5205   7.7020   7.7020   7.7020  10.7336  10.7336

          k =-0.1000 0.1000-0.1000 (  1606 PWs)   bands (ev):

[...]

     the Fermi energy is     1.3104 ev

!    total energy              =      -4.05792063 Ry
     estimated scf accuracy    <       0.00000098 Ry
     smearing contrib. (-TS)   =      -0.04724224 Ry
     internal energy E=F+TS    =      -4.01067839 Ry

     The total energy is F=E-TS. E is the sum of the following terms:
     one-electron contribution =       1.19905536 Ry
     hartree contribution      =       0.08769123 Ry
     xc contribution           =      -1.27683091 Ry
     ewald contribution        =      -4.02059408 Ry

     convergence has been achieved in   7 iterations
     Writing meta-gga kinetic term

     Forces acting on atoms (cartesian axes, Ry/au):

     atom    1 type  1   force =     0.00000000    0.00000000    0.00000000

     Total force =     0.000000     Total SCF correction =     0.000000

     Computing stress (Cartesian axis) and pressure

          total   stress  (Ry/bohr**3)                   (kbar)     P=      -67.51
  -0.00045892   0.00000000   0.00000000          -67.51        0.00        0.00
   0.00000000  -0.00045892  -0.00000000            0.00      -67.51       -0.00
   0.00000000  -0.00000000  -0.00045892            0.00       -0.00      -67.51

     BFGS Geometry Optimization
     Energy error            =      0.0E+00 Ry
     Gradient error          =      0.0E+00 Ry/Bohr
     Cell gradient error     =      6.8E+01 kbar

     number of scf cycles    =   1
     number of bfgs steps    =   0

     enthalpy           new  =      -4.0579206253 Ry

     new trust radius        =       0.0377216197 bohr
     new conv_thr            =       0.0000010000 Ry

     new unit-cell volume =    261.06067 a.u.^3 (    38.68520 Ang^3 )
     density =      1.15817 g/cm^3

CELL_PARAMETERS (alat= 10.26310000)
  -0.494263559  -0.000000000   0.494263559
   0.000000000   0.494263559   0.494263559
  -0.494263559   0.494263559  -0.000000000

ATOMIC_POSITIONS (alat)
Al            0.0000000000        0.0000000000        0.0000000000

     Writing config-only to output data dir ./pwscf.save/
     NEW-OLD atomic charge density approx. for the potential
     extrapolated charge    2.89440, renormalised to    3.00000

[...]

     Energy error            =      4.4E-03 Ry
     Gradient error          =      0.0E+00 Ry/Bohr
     Cell gradient error     =      7.4E+01 kbar

[...]

     enthalpy           old  =      -4.0579206253 Ry
     enthalpy           new  =      -4.0623644970 Ry

     CASE: enthalpy          _new < enthalpy          _old

     WARNING: bfgs curvature condition failed, Theta= 0.748
     new trust radius        =       0.0290614067 bohr
     new conv_thr            =       0.0000000100 Ry

[...]

     WARNING: bfgs curvature condition failed, Theta= 0.821
     new trust radius        =       0.2071857465 bohr
     new conv_thr            =       0.0000000100 Ry

[...]

     Writing config-only to output data dir ./pwscf.save/
     NEW-OLD atomic charge density approx. for the potential

     negative rho (up,down):  2.395E-03 0.000E+00
     extrapolated charge    1.50777, renormalised to    3.00000

[...]

     iteration #  1     ecut=    50.00 Ry     beta= 0.01
     Davidson diagonalization with overlap
     c_bands:  1 eigenvalues not converged
     c_bands:  1 eigenvalues not converged
     c_bands:  1 eigenvalues not converged
     c_bands:  1 eigenvalues not converged
     c_bands:  1 eigenvalues not converged
     c_bands:  1 eigenvalues not converged
     ethr =  1.00E-06,  avg # of iterations = 16.1

     negative rho (up,down):  4.739E-03 0.000E+00

[...]

     negative rho (up,down):  1.359E-06 0.000E+00

[...]

     number of scf cycles    =  12
     number of bfgs steps    =  11

     enthalpy           old  =      -4.1529595732 Ry
     enthalpy           new  =      -4.1531493229 Ry

     CASE: enthalpy          _new < enthalpy          _old

     new trust radius        =       0.0034469990 bohr
     new conv_thr            =       0.0000000100 Ry

     new unit-cell volume =    111.09117 a.u.^3 (    16.46201 Ang^3 )
     density =      2.72165 g/cm^3

[...]

ATOMIC_POSITIONS (alat)
Al            0.0000000000        0.0000000000        0.0000000000

     Writing config-only to output data dir ./pwscf.save/
     NEW-OLD atomic charge density approx. for the potential
     extrapolated charge    3.01469, renormalised to    3.00000

[...]

     Threshold (ethr) on eigenvalues was too large:
     Diagonalizing with lowered threshold

     Davidson diagonalization with overlap
     ethr =  2.91E-08,  avg # of iterations =  1.1

[...]

     Energy error            =      5.0E-06 Ry
     Gradient error          =      0.0E+00 Ry/Bohr
     Cell gradient error     =      2.6E-01 kbar

     bfgs converged in  13 scf cycles and  12 bfgs steps
     (criteria: energy <  1.0E-04 Ry, force <  1.0E-03Ry/Bohr, cell <  5.0E-01kbar)

     End of BFGS Geometry Optimization

     Final enthalpy           =      -4.1531542926 Ry

     File ./pwscf.bfgs deleted, as requested
Begin final coordinates
     new unit-cell volume =    111.09117 a.u.^3 (    16.46201 Ang^3 )
     density =      2.72165 g/cm^3

CELL_PARAMETERS (alat= 10.26310000)
  -0.371767388  -0.000000000   0.371767388
   0.000000000   0.371767388   0.371767388
  -0.371767388   0.371767388  -0.000000000

ATOMIC_POSITIONS (alat)
Al            0.0000000000        0.0000000000        0.0000000000
End final coordinates

     Writing config-only to output data dir ./pwscf.save/

     Final scf calculation at the relaxed structure.
     The G-vectors are recalculated for the final unit cell
     Results may differ from those at the preceding step.

     Using Slab Decomposition

     bravais-lattice index     =            2
     lattice parameter (alat)  =      10.2631  a.u.
     unit-cell volume          =     111.0912 (a.u.)^3
     number of atoms/cell      =            1
     number of atomic types    =            1
     number of electrons       =         3.00
     number of Kohn-Sham states=            6
     kinetic-energy cutoff     =      50.0000  Ry
     charge density cutoff     =     200.0000  Ry
     scf convergence threshold =      1.0E-08
     mixing beta               =       0.0100
     number of iterations used =            8  local-TF  mixing
     press convergence thresh. =      5.0E-01
     Exchange-correlation=  SLA  PW   SCAN SCAN
                           (   0   0   0   0   0 263 267)

     celldm(1)=  10.263100  celldm(2)=   0.000000  celldm(3)=   0.000000
     celldm(4)=   0.000000  celldm(5)=   0.000000  celldm(6)=   0.000000

     crystal axes: (cart. coord. in units of alat)
               a(1) = (  -0.371767  -0.000000   0.371767 )
               a(2) = (   0.000000   0.371767   0.371767 )
               a(3) = (  -0.371767   0.371767  -0.000000 )

     reciprocal axes: (cart. coord. in units 2 pi/alat)
               b(1) = ( -1.344927 -1.344927  1.344927 )
               b(2) = (  1.344927  1.344927  1.344927 )
               b(3) = ( -1.344927  1.344927 -1.344927 )

     PseudoPot. # 1 for Al read from file:
     ~/Documents/PWDFT.jl/pseudopotentials/scan_upf/Al.SCAN.UPF
     MD5 check sum: Not computed, couldn't open file
     Pseudo is Norm-conserving, Zval =  3.0
     Generated by new atomic code, or converted to UPF format
     Using radial grid of 1467 points,  2 beta functions with:
                l(1) =   0
                l(2) =   1

     atomic species   valence    mass     pseudopotential
        Al             3.00    26.98154     Al( 1.00)

     48 Sym. Ops., with inversion, found

   Cartesian axes

     site n.     atom                  positions (alat units)
         1           Al  tau(   1) = (   0.0000000   0.0000000   0.0000000  )

     number of k points=    47  Gaussian smearing, width (Ry)=  0.1000
                       cart. coord. in units 2pi/alat
        k(    1) = (   0.0000000   0.0000000   0.0000000), wk =   0.0020000
        k(    2) = (  -0.1344927   0.1344927  -0.1344927), wk =   0.0160000
        k(    3) = (  -0.2689854   0.2689854  -0.2689854), wk =   0.0160000
        k(    4) = (  -0.4034781   0.4034781  -0.4034781), wk =   0.0160000
        k(    5) = (  -0.5379708   0.5379708  -0.5379708), wk =   0.0160000
        k(    6) = (   0.6724635  -0.6724635   0.6724635), wk =   0.0080000
        k(    7) = (  -0.0000000   0.2689854  -0.0000000), wk =   0.0120000
        k(    8) = (  -0.1344927   0.4034781  -0.1344927), wk =   0.0480000
        k(    9) = (  -0.2689854   0.5379708  -0.2689854), wk =   0.0480000
        k(   10) = (  -0.4034781   0.6724635  -0.4034781), wk =   0.0480000
        k(   11) = (   0.8069562  -0.5379708   0.8069562), wk =   0.0480000
        k(   12) = (   0.6724635  -0.4034781   0.6724635), wk =   0.0480000
        k(   13) = (   0.5379708  -0.2689854   0.5379708), wk =   0.0480000
        k(   14) = (   0.4034781  -0.1344927   0.4034781), wk =   0.0480000
        k(   15) = (   0.2689854   0.0000000   0.2689854), wk =   0.0240000
        k(   16) = (  -0.0000000   0.5379708  -0.0000000), wk =   0.0120000
        k(   17) = (  -0.1344927   0.6724635  -0.1344927), wk =   0.0480000
        k(   18) = (  -0.2689854   0.8069562  -0.2689854), wk =   0.0480000
        k(   19) = (   0.9414489  -0.4034781   0.9414489), wk =   0.0480000
        k(   20) = (   0.8069562  -0.2689854   0.8069562), wk =   0.0480000
        k(   21) = (   0.6724635  -0.1344927   0.6724635), wk =   0.0480000
        k(   22) = (   0.5379708   0.0000000   0.5379708), wk =   0.0240000
        k(   23) = (  -0.0000000   0.8069562  -0.0000000), wk =   0.0120000
        k(   24) = (  -0.1344927   0.9414489  -0.1344927), wk =   0.0480000
        k(   25) = (   1.0759416  -0.2689854   1.0759416), wk =   0.0480000
        k(   26) = (   0.9414489  -0.1344927   0.9414489), wk =   0.0480000
        k(   27) = (   0.8069562   0.0000000   0.8069562), wk =   0.0240000
        k(   28) = (  -0.0000000   1.0759416  -0.0000000), wk =   0.0120000
        k(   29) = (   1.2104343  -0.1344927   1.2104343), wk =   0.0480000
        k(   30) = (   1.0759416   0.0000000   1.0759416), wk =   0.0240000
        k(   31) = (   0.0000000  -1.3449270   0.0000000), wk =   0.0060000
        k(   32) = (  -0.2689854   0.5379708  -0.0000000), wk =   0.0480000
        k(   33) = (  -0.4034781   0.6724635  -0.1344927), wk =   0.0960000
        k(   34) = (   0.8069562  -0.5379708   1.0759416), wk =   0.0960000
        k(   35) = (   0.6724635  -0.4034781   0.9414489), wk =   0.0480000
        k(   36) = (  -0.2689854   0.8069562  -0.0000000), wk =   0.0480000
        k(   37) = (   0.9414489  -0.4034781   1.2104343), wk =   0.0960000
        k(   38) = (   0.8069562  -0.2689854   1.0759416), wk =   0.0960000
        k(   39) = (   0.6724635  -0.1344927   0.9414489), wk =   0.0960000
        k(   40) = (   0.5379708   0.0000000   0.8069562), wk =   0.0480000
        k(   41) = (   1.0759416  -0.2689854   1.3449270), wk =   0.0480000
        k(   42) = (   0.9414489  -0.1344927   1.2104343), wk =   0.0960000
        k(   43) = (   0.8069562   0.0000000   1.0759416), wk =   0.0480000
        k(   44) = (  -0.2689854  -1.3449270   0.0000000), wk =   0.0240000
        k(   45) = (   0.8069562  -0.2689854   1.3449270), wk =   0.0480000
        k(   46) = (   0.6724635  -0.1344927   1.2104343), wk =   0.0480000
        k(   47) = (  -0.5379708  -1.3449270   0.0000000), wk =   0.0240000

      on external parameters: check the user_guide of
      QE if you need to modify them or to check their
      default values.

     Initial potential from superposition of free atoms

     starting charge       2.9979, renormalised to       3.0000
     Starting wfcs are    9 randomized atomic wfcs

     Self-consistent Calculation

     iteration #  1     ecut=    50.00 Ry     beta= 0.01
     Davidson diagonalization with overlap
     c_bands:  2 eigenvalues not converged
     c_bands:  1 eigenvalues not converged
     c_bands:  1 eigenvalues not converged
     c_bands:  1 eigenvalues not converged
     c_bands:  1 eigenvalues not converged
     c_bands:  1 eigenvalues not converged
     ethr =  1.00E-06,  avg # of iterations = 12.9

[...]

     total energy              =      -4.15345593 Ry
     estimated scf accuracy    <       0.00000001 Ry

     iteration # 17     ecut=    50.00 Ry     beta= 0.01
     Davidson diagonalization with overlap
     ethr =  3.64E-10,  avg # of iterations =  2.0

     End of self-consistent calculation

[...]

          k = 0.6725-0.1345 1.2104 (   674 PWs)   bands (ev):

[...]

          k =-0.5380-1.3449 0.0000 (   670 PWs)   bands (ev):

     6.2460   7.7488   7.9823   9.9766  21.8390  23.4496

     the Fermi energy is     7.9755 ev

!    total energy              =      -4.15345592 Ry
     estimated scf accuracy    <          4.3E-09 Ry
     smearing contrib. (-TS)   =      -0.02625173 Ry
     internal energy E=F+TS    =      -4.12720419 Ry

     The total energy is F=E-TS. E is the sum of the following terms:
     one-electron contribution =       2.86879040 Ry
     hartree contribution      =       0.00704886 Ry
     xc contribution           =      -1.59563790 Ry
     ewald contribution        =      -5.40740554 Ry

     convergence has been achieved in  17 iterations
     Writing meta-gga kinetic term

     Forces acting on atoms (cartesian axes, Ry/au):

     atom    1 type  1   force =     0.00000000    0.00000000    0.00000000

     Total force =     0.000000     Total SCF correction =     0.000000

     Computing stress (Cartesian axis) and pressure

          total   stress  (Ry/bohr**3)                   (kbar)     P=       -0.92
  -0.00000627   0.00000000   0.00000000           -0.92        0.00        0.00
   0.00000000  -0.00000627   0.00000000            0.00       -0.92        0.00
   0.00000000   0.00000000  -0.00000627            0.00        0.00       -0.92

     Writing all to output data dir ./pwscf.save/
     Writing meta-gga kinetic term

     General routines

     Parallel routines

   This run was terminated on:  20:41:48  19Feb2023

   JOB DONE.