     Program PWSCF v.7.0 starts on 18Feb2023 at 14:29: 5

     R & G space division:  proc/nbgrp/npool/nimage =       8

     Waiting for input...
     Reading input from standard input

     Current dimensions of program PWSCF are:
     Max number of different atomic species (ntypx) = 10
     Max number of k-points (npk) =  40000
     Max angular momentum in pseudopotentials (lmaxx) =  4

     WARNING: the MGGA functional with ID    5 has been
     read together with other dft terms, but it should
     stand alone in order to work properly. The other
     terms will be ignored.

     Using Slab Decomposition

     bravais-lattice index     =            2
     lattice parameter (alat)  =      10.2631  a.u.
     unit-cell volume          =     270.2562 (a.u.)^3
     number of atoms/cell      =            2
     number of atomic types    =            1
     number of electrons       =         8.00
     number of Kohn-Sham states=            4
     kinetic-energy cutoff     =      50.0000  Ry
     charge density cutoff     =     200.0000  Ry
     scf convergence threshold =      1.0E-06
     mixing beta               =       0.0100
     number of iterations used =            8  local-TF  mixing
     energy convergence thresh.=      1.0E-04
     force convergence thresh. =      1.0E-03
     press convergence thresh. =      5.0E-01
     Exchange-correlation= SLA  PW   SCAN SCAN
                           (   0   0   0   0   0 263 267)
     nstep                     =           50

     celldm(1)=  10.263100  celldm(2)=   0.000000  celldm(3)=   0.000000
     celldm(4)=   0.000000  celldm(5)=   0.000000  celldm(6)=   0.000000

     crystal axes: (cart. coord. in units of alat)
               a(1) = (  -0.500000   0.000000   0.500000 )
               a(2) = (   0.000000   0.500000   0.500000 )
               a(3) = (  -0.500000   0.500000   0.000000 )

     reciprocal axes: (cart. coord. in units 2 pi/alat)
               b(1) = ( -1.000000 -1.000000  1.000000 )
               b(2) = (  1.000000  1.000000  1.000000 )
               b(3) = ( -1.000000  1.000000 -1.000000 )

     PseudoPot. # 1 for C  read from file:
     ~/Documents/PWDFT.jl/pseudopotentials/scan_upf/C.SCAN.UPF
     MD5 check sum: Not computed, couldn't open file
     Pseudo is Norm-conserving, Zval =  4.0
     Generated by new atomic code, or converted to UPF format
     Using radial grid of 1389 points,  1 beta functions with:
                l(1) =   0

     atomic species   valence    mass     pseudopotential
        C              4.00    12.01100     C ( 1.00)

     48 Sym. Ops., with inversion, found (24 have fractional translation)

   Cartesian axes

     site n.     atom                  positions (alat units)
         1           C   tau(   1) = (   0.0000000   0.0000000   0.0000000  )
         2           C   tau(   2) = (   0.2500000   0.2500000   0.2500000  )

     number of k points=    47
                       cart. coord. in units 2pi/alat
        k(    1) = (   0.0000000   0.0000000   0.0000000), wk =   0.0020000
        k(    2) = (  -0.1000000   0.1000000  -0.1000000), wk =   0.0160000
        k(    3) = (  -0.2000000   0.2000000  -0.2000000), wk =   0.0160000
        k(    4) = (  -0.3000000   0.3000000  -0.3000000), wk =   0.0160000
        k(    5) = (  -0.4000000   0.4000000  -0.4000000), wk =   0.0160000
        k(    6) = (   0.5000000  -0.5000000   0.5000000), wk =   0.0080000
        k(    7) = (   0.0000000   0.2000000   0.0000000), wk =   0.0120000
        k(    8) = (  -0.1000000   0.3000000  -0.1000000), wk =   0.0480000
        k(    9) = (  -0.2000000   0.4000000  -0.2000000), wk =   0.0480000
        k(   10) = (  -0.3000000   0.5000000  -0.3000000), wk =   0.0480000
        k(   11) = (   0.6000000  -0.4000000   0.6000000), wk =   0.0480000
        k(   12) = (   0.5000000  -0.3000000   0.5000000), wk =   0.0480000
        k(   13) = (   0.4000000  -0.2000000   0.4000000), wk =   0.0480000
        k(   14) = (   0.3000000  -0.1000000   0.3000000), wk =   0.0480000
        k(   15) = (   0.2000000   0.0000000   0.2000000), wk =   0.0240000
        k(   16) = (   0.0000000   0.4000000   0.0000000), wk =   0.0120000
        k(   17) = (  -0.1000000   0.5000000  -0.1000000), wk =   0.0480000
        k(   18) = (  -0.2000000   0.6000000  -0.2000000), wk =   0.0480000
        k(   19) = (   0.7000000  -0.3000000   0.7000000), wk =   0.0480000
        k(   20) = (   0.6000000  -0.2000000   0.6000000), wk =   0.0480000
        k(   21) = (   0.5000000  -0.1000000   0.5000000), wk =   0.0480000
        k(   22) = (   0.4000000   0.0000000   0.4000000), wk =   0.0240000
        k(   23) = (   0.0000000   0.6000000   0.0000000), wk =   0.0120000
        k(   24) = (  -0.1000000   0.7000000  -0.1000000), wk =   0.0480000
        k(   25) = (   0.8000000  -0.2000000   0.8000000), wk =   0.0480000
        k(   26) = (   0.7000000  -0.1000000   0.7000000), wk =   0.0480000
        k(   27) = (   0.6000000  -0.0000000   0.6000000), wk =   0.0240000
        k(   28) = (   0.0000000   0.8000000   0.0000000), wk =   0.0120000
        k(   29) = (   0.9000000  -0.1000000   0.9000000), wk =   0.0480000
        k(   30) = (   0.8000000   0.0000000   0.8000000), wk =   0.0240000
        k(   31) = (   0.0000000  -1.0000000   0.0000000), wk =   0.0060000
        k(   32) = (  -0.2000000   0.4000000   0.0000000), wk =   0.0480000
        k(   33) = (  -0.3000000   0.5000000  -0.1000000), wk =   0.0960000
        k(   34) = (   0.6000000  -0.4000000   0.8000000), wk =   0.0960000
        k(   35) = (   0.5000000  -0.3000000   0.7000000), wk =   0.0480000
        k(   36) = (  -0.2000000   0.6000000   0.0000000), wk =   0.0480000
        k(   37) = (   0.7000000  -0.3000000   0.9000000), wk =   0.0960000
        k(   38) = (   0.6000000  -0.2000000   0.8000000), wk =   0.0960000
        k(   39) = (   0.5000000  -0.1000000   0.7000000), wk =   0.0960000
        k(   40) = (   0.4000000   0.0000000   0.6000000), wk =   0.0480000
        k(   41) = (   0.8000000  -0.2000000   1.0000000), wk =   0.0480000
        k(   42) = (   0.7000000  -0.1000000   0.9000000), wk =   0.0960000
        k(   43) = (   0.6000000   0.0000000   0.8000000), wk =   0.0480000
        k(   44) = (  -0.2000000  -1.0000000   0.0000000), wk =   0.0240000
        k(   45) = (   0.6000000  -0.2000000   1.0000000), wk =   0.0480000
        k(   46) = (   0.5000000  -0.1000000   0.9000000), wk =   0.0480000
        k(   47) = (  -0.4000000  -1.0000000   0.0000000), wk =   0.0240000

      on external parameters: check the user_guide of
      QE if you need to modify them or to check their
      default values.

     Initial potential from superposition of free atoms

     starting charge       7.9999, renormalised to       8.0000
     Starting wfcs are    8 randomized atomic wfcs

     Self-consistent Calculation

     iteration #  1     ecut=    50.00 Ry     beta= 0.01
     Davidson diagonalization with overlap
     ethr =  1.00E-02,  avg # of iterations =  1.0

     total energy              =     -21.95327719 Ry
     estimated scf accuracy    <       0.53785442 Ry

[...]

     iteration # 12     ecut=    50.00 Ry     beta= 0.01
     Davidson diagonalization with overlap
     c_bands:  1 eigenvalues not converged
     c_bands:  1 eigenvalues not converged
     c_bands:  1 eigenvalues not converged
     ethr =  2.25E-08,  avg # of iterations =  6.6

[...]

     End of self-consistent calculation

          k = 0.0000 0.0000 0.0000 (  1639 PWs)   bands (ev):

   -12.3653  -5.0223  -0.5314  -0.5314

          k =-0.1000 0.1000-0.1000 (  1606 PWs)   bands (ev):

[...]

     highest occupied level (ev):    -0.5314

!    total energy              =     -21.97021396 Ry
     estimated scf accuracy    <       0.00000038 Ry

     The total energy is the sum of the following terms:
     one-electron contribution =      -3.32716805 Ry
     hartree contribution      =       3.86602588 Ry
     xc contribution           =      -5.71321696 Ry
     ewald contribution        =     -16.79585484 Ry

     convergence has been achieved in  15 iterations
     Writing meta-gga kinetic term

     Computing stress (Cartesian axis) and pressure

          total   stress  (Ry/bohr**3)                   (kbar)     P=     -358.54
  -0.00243732   0.00000000  -0.00000000         -358.54        0.00       -0.00
  -0.00000000  -0.00243732   0.00000000           -0.00     -358.54        0.00
   0.00000000   0.00000000  -0.00243732            0.00        0.00     -358.54

     BFGS Geometry Optimization
     Energy error            =      0.0E+00 Ry
     Gradient error          =      0.0E+00 Ry/Bohr
     Cell gradient error     =      3.6E+02 kbar

     number of scf cycles    =   1
     number of bfgs steps    =   0

     enthalpy           new  =     -21.9702139612 Ry

     new trust radius        =       0.2003412273 bohr
     new conv_thr            =       0.0000010000 Ry

     new unit-cell volume =    223.80276 a.u.^3 (    33.16415 Ang^3 )
     density =      1.20279 g/cm^3

CELL_PARAMETERS (alat= 10.26310000)
  -0.469533505   0.000000000   0.469533505
   0.000000000   0.469533505   0.469533505
  -0.469533505   0.469533505   0.000000000

ATOMIC_POSITIONS (alat)
C             0.0000000000        0.0000000000        0.0000000000    0   0   0
C             0.2347667525        0.2347667525        0.2347667525    0   0   0

     Writing config-only to output data dir ./pwscf.save/
     NEW-OLD atomic charge density approx. for the potential
     extrapolated charge    6.33950, renormalised to    8.00000

[...]

     Energy error            =      1.3E-01 Ry
     Gradient error          =      0.0E+00 Ry/Bohr
     Cell gradient error     =      4.7E+02 kbar

[...]

     enthalpy           old  =     -21.9702139612 Ry
     enthalpy           new  =     -22.0991616229 Ry

     CASE: enthalpy          _new < enthalpy          _old

     WARNING: bfgs curvature condition failed, Theta= 0.699
     uphill step: resetting bfgs history

[...]

     WARNING: bfgs curvature condition failed, Theta= 0.672
     uphill step: resetting bfgs history

[...]

     WARNING: bfgs curvature condition failed, Theta= 0.776
     new trust radius        =       0.4153904185 bohr
     new conv_thr            =       0.0000000100 Ry

[...]

     Writing config-only to output data dir ./pwscf.save/
     NEW-OLD atomic charge density approx. for the potential

     negative rho (up,down):  5.955E-01 0.000E+00
     extrapolated charge    1.08741, renormalised to    8.00000

[...]

     negative rho (up,down):  4.342E+00 0.000E+00

[...]

     iteration # 12     ecut=    50.00 Ry     beta= 0.01
     Davidson diagonalization with overlap
     c_bands:  1 eigenvalues not converged
     ethr =  1.00E-02,  avg # of iterations = 14.1

[...]

     negative rho (up,down):  6.416E-04 0.000E+00

[...]

     number of scf cycles    =   9
     number of bfgs steps    =   8

     enthalpy           old  =     -22.7607296994 Ry
     enthalpy           new  =     -22.7607459917 Ry

     CASE: enthalpy          _new < enthalpy          _old

     small trust_radius: resetting bfgs history

     new trust radius        =       0.0001000000 bohr
     new conv_thr            =       0.0000000100 Ry

     new unit-cell volume =     75.67396 a.u.^3 (    11.21372 Ang^3 )
     density =      3.55720 g/cm^3

[...]

ATOMIC_POSITIONS (alat)
C             0.0000000000        0.0000000000        0.0000000000    0   0   0
C             0.1635549145        0.1635549145        0.1635549145    0   0   0

     Writing config-only to output data dir ./pwscf.save/
     NEW-OLD atomic charge density approx. for the potential
     extrapolated charge    7.99862, renormalised to    8.00000

[...]

     Threshold (ethr) on eigenvalues was too large:
     Diagonalizing with lowered threshold

     Davidson diagonalization with overlap
     ethr =  3.25E-09,  avg # of iterations =  1.0

[...]

     Energy error            =      1.2E-08 Ry
     Gradient error          =      0.0E+00 Ry/Bohr
     Cell gradient error     =      2.6E-01 kbar

     bfgs converged in  10 scf cycles and   9 bfgs steps
     (criteria: energy <  1.0E-04 Ry, force <  1.0E-03Ry/Bohr, cell <  5.0E-01kbar)

     End of BFGS Geometry Optimization

     Final enthalpy           =     -22.7607460041 Ry

     File ./pwscf.bfgs deleted, as requested
Begin final coordinates
     new unit-cell volume =     75.67396 a.u.^3 (    11.21372 Ang^3 )
     density =      3.55720 g/cm^3

CELL_PARAMETERS (alat= 10.26310000)
  -0.327109829   0.000000000   0.327109829
  -0.000000000   0.327109829   0.327109829
  -0.327109829   0.327109829   0.000000000

ATOMIC_POSITIONS (alat)
C             0.0000000000        0.0000000000        0.0000000000    0   0   0
C             0.1635549145        0.1635549145        0.1635549145    0   0   0
End final coordinates

     Writing config-only to output data dir ./pwscf.save/

     Final scf calculation at the relaxed structure.
     The G-vectors are recalculated for the final unit cell
     Results may differ from those at the preceding step.

     Using Slab Decomposition

     bravais-lattice index     =            2
     lattice parameter (alat)  =      10.2631  a.u.
     unit-cell volume          =      75.6740 (a.u.)^3
     number of atoms/cell      =            2
     number of atomic types    =            1
     number of electrons       =         8.00
     number of Kohn-Sham states=            4
     kinetic-energy cutoff     =      50.0000  Ry
     charge density cutoff     =     200.0000  Ry
     scf convergence threshold =      1.0E-08
     mixing beta               =       0.0100
     number of iterations used =            8  local-TF  mixing
     press convergence thresh. =      5.0E-01
     Exchange-correlation= SLA  PW   SCAN SCAN
                           (   0   0   0   0   0 263 267)

     celldm(1)=  10.263100  celldm(2)=   0.000000  celldm(3)=   0.000000
     celldm(4)=   0.000000  celldm(5)=   0.000000  celldm(6)=   0.000000

     crystal axes: (cart. coord. in units of alat)
               a(1) = (  -0.327110   0.000000   0.327110 )
               a(2) = (  -0.000000   0.327110   0.327110 )
               a(3) = (  -0.327110   0.327110   0.000000 )

     reciprocal axes: (cart. coord. in units 2 pi/alat)
               b(1) = ( -1.528539 -1.528539  1.528539 )
               b(2) = (  1.528539  1.528539  1.528539 )
               b(3) = ( -1.528539  1.528539 -1.528539 )

     PseudoPot. # 1 for C  read from file:
     ~/Documents/PWDFT.jl/pseudopotentials/scan_upf/C.SCAN.UPF
     MD5 check sum: Not computed, couldn't open file
     Pseudo is Norm-conserving, Zval =  4.0
     Generated by new atomic code, or converted to UPF format
     Using radial grid of 1389 points,  1 beta functions with:
                l(1) =   0

     atomic species   valence    mass     pseudopotential
        C              4.00    12.01100     C ( 1.00)

     48 Sym. Ops., with inversion, found (24 have fractional translation)

   Cartesian axes

     site n.     atom                  positions (alat units)
         1           C   tau(   1) = (   0.0000000   0.0000000   0.0000000  )
         2           C   tau(   2) = (   0.1635549   0.1635549   0.1635549  )

     number of k points=    47
                       cart. coord. in units 2pi/alat
        k(    1) = (   0.0000000   0.0000000   0.0000000), wk =   0.0020000
        k(    2) = (  -0.1528539   0.1528539  -0.1528539), wk =   0.0160000
        k(    3) = (  -0.3057077   0.3057077  -0.3057077), wk =   0.0160000
        k(    4) = (  -0.4585616   0.4585616  -0.4585616), wk =   0.0160000
        k(    5) = (  -0.6114154   0.6114154  -0.6114154), wk =   0.0160000
        k(    6) = (   0.7642693  -0.7642693   0.7642693), wk =   0.0080000
        k(    7) = (   0.0000000   0.3057077  -0.0000000), wk =   0.0120000
        k(    8) = (  -0.1528539   0.4585616  -0.1528539), wk =   0.0480000
        k(    9) = (  -0.3057077   0.6114154  -0.3057077), wk =   0.0480000
        k(   10) = (  -0.4585616   0.7642693  -0.4585616), wk =   0.0480000
        k(   11) = (   0.9171232  -0.6114154   0.9171232), wk =   0.0480000
        k(   12) = (   0.7642693  -0.4585616   0.7642693), wk =   0.0480000
        k(   13) = (   0.6114154  -0.3057077   0.6114154), wk =   0.0480000
        k(   14) = (   0.4585616  -0.1528539   0.4585616), wk =   0.0480000
        k(   15) = (   0.3057077   0.0000000   0.3057077), wk =   0.0240000
        k(   16) = (   0.0000000   0.6114154  -0.0000000), wk =   0.0120000
        k(   17) = (  -0.1528539   0.7642693  -0.1528539), wk =   0.0480000
        k(   18) = (  -0.3057077   0.9171232  -0.3057077), wk =   0.0480000
        k(   19) = (   1.0699770  -0.4585616   1.0699770), wk =   0.0480000
        k(   20) = (   0.9171232  -0.3057077   0.9171232), wk =   0.0480000
        k(   21) = (   0.7642693  -0.1528539   0.7642693), wk =   0.0480000
        k(   22) = (   0.6114154   0.0000000   0.6114154), wk =   0.0240000
        k(   23) = (   0.0000000   0.9171232  -0.0000000), wk =   0.0120000
        k(   24) = (  -0.1528539   1.0699770  -0.1528539), wk =   0.0480000
        k(   25) = (   1.2228309  -0.3057077   1.2228309), wk =   0.0480000
        k(   26) = (   1.0699770  -0.1528539   1.0699770), wk =   0.0480000
        k(   27) = (   0.9171232  -0.0000000   0.9171232), wk =   0.0240000
        k(   28) = (   0.0000000   1.2228309  -0.0000000), wk =   0.0120000
        k(   29) = (   1.3756847  -0.1528539   1.3756847), wk =   0.0480000
        k(   30) = (   1.2228309   0.0000000   1.2228309), wk =   0.0240000
        k(   31) = (  -0.0000000  -1.5285386   0.0000000), wk =   0.0060000
        k(   32) = (  -0.3057077   0.6114154   0.0000000), wk =   0.0480000
        k(   33) = (  -0.4585616   0.7642693  -0.1528539), wk =   0.0960000
        k(   34) = (   0.9171232  -0.6114154   1.2228309), wk =   0.0960000
        k(   35) = (   0.7642693  -0.4585616   1.0699770), wk =   0.0480000
        k(   36) = (  -0.3057077   0.9171232  -0.0000000), wk =   0.0480000
        k(   37) = (   1.0699770  -0.4585616   1.3756847), wk =   0.0960000
        k(   38) = (   0.9171232  -0.3057077   1.2228309), wk =   0.0960000
        k(   39) = (   0.7642693  -0.1528539   1.0699770), wk =   0.0960000
        k(   40) = (   0.6114154   0.0000000   0.9171232), wk =   0.0480000
        k(   41) = (   1.2228309  -0.3057077   1.5285386), wk =   0.0480000
        k(   42) = (   1.0699770  -0.1528539   1.3756847), wk =   0.0960000
        k(   43) = (   0.9171232  -0.0000000   1.2228309), wk =   0.0480000
        k(   44) = (  -0.3057077  -1.5285386   0.0000000), wk =   0.0240000
        k(   45) = (   0.9171232  -0.3057077   1.5285386), wk =   0.0480000
        k(   46) = (   0.7642693  -0.1528539   1.3756847), wk =   0.0480000
        k(   47) = (  -0.6114154  -1.5285386   0.0000000), wk =   0.0240000

      on external parameters: check the user_guide of
      QE if you need to modify them or to check their
      default values.

     Initial potential from superposition of free atoms

     starting charge       7.9999, renormalised to       8.0000
     Starting wfcs are    8 randomized atomic wfcs

     Self-consistent Calculation

[...]

     total energy              =     -22.73576943 Ry
     estimated scf accuracy    <       0.00000010 Ry

     iteration # 16     ecut=    50.00 Ry     beta= 0.01
     Davidson diagonalization with overlap
     ethr =  5.85E-10,  avg # of iterations =  1.1

     End of self-consistent calculation

[...]

          k = 0.7643-0.1529 1.3757 (   454 PWs)   bands (ev):

[...]

          k =-0.6114-1.5285 0.0000 (   454 PWs)   bands (ev):

     0.7265   0.7265   4.9853   4.9853

     highest occupied level (ev):    13.4560

!    total energy              =     -22.73576944 Ry
     estimated scf accuracy    <          1.7E-09 Ry

     The total energy is the sum of the following terms:
     one-electron contribution =       8.10941737 Ry
     hartree contribution      =       1.92914070 Ry
     xc contribution           =      -7.10121510 Ry
     ewald contribution        =     -25.67311241 Ry

     convergence has been achieved in  16 iterations
     Writing meta-gga kinetic term

     Computing stress (Cartesian axis) and pressure

          total   stress  (Ry/bohr**3)                   (kbar)     P=     -143.07
  -0.00097257  -0.00000000   0.00000000         -143.07       -0.00        0.00
   0.00000000  -0.00097257  -0.00000000            0.00     -143.07       -0.00
   0.00000000   0.00000000  -0.00097257            0.00        0.00     -143.07

     Writing all to output data dir ./pwscf.save/
     Writing meta-gga kinetic term

     General routines

     Parallel routines

   This run was terminated on:  14:31:21  18Feb2023

   JOB DONE.