     Program PWSCF v.7.0 starts on 16Feb2023 at 13:52:27

     Waiting for input...
     Reading input from standard input

     Current dimensions of program PWSCF are:
     Max number of different atomic species (ntypx) = 10
     Max number of k-points (npk) =  40000
     Max angular momentum in pseudopotentials (lmaxx) =  4

     WARNING: the MGGA functional with ID    5 has been
     read together with other dft terms, but it should
     stand alone in order to work properly. The other
     terms will be ignored.

     Subspace diagonalization in iterative solution of the eigenvalue problem:
     a serial algorithm will be used

     Using Slab Decomposition

     bravais-lattice index     =            2
     lattice parameter (alat)  =      10.2631  a.u.
     unit-cell volume          =     270.2562 (a.u.)^3
     number of atoms/cell      =            2
     number of atomic types    =            1
     number of electrons       =         8.00
     number of Kohn-Sham states=            4
     kinetic-energy cutoff     =      50.0000  Ry
     charge density cutoff     =     200.0000  Ry
     scf convergence threshold =      1.0E-06
     mixing beta               =       0.0100
     number of iterations used =            8  local-TF  mixing
     energy convergence thresh.=      1.0E-04
     force convergence thresh. =      1.0E-03
     press convergence thresh. =      5.0E-01
     Exchange-correlation= SLA  PW   SCAN SCAN
                           (   0   0   0   0   0 263 267)
     nstep                     =           50

     celldm(1)=  10.263100  celldm(2)=   0.000000  celldm(3)=   0.000000
     celldm(4)=   0.000000  celldm(5)=   0.000000  celldm(6)=   0.000000

     crystal axes: (cart. coord. in units of alat)
               a(1) = (  -0.500000   0.000000   0.500000 )
               a(2) = (   0.000000   0.500000   0.500000 )
               a(3) = (  -0.500000   0.500000   0.000000 )

     reciprocal axes: (cart. coord. in units 2 pi/alat)
               b(1) = ( -1.000000 -1.000000  1.000000 )
               b(2) = (  1.000000  1.000000  1.000000 )
               b(3) = ( -1.000000  1.000000 -1.000000 )

     PseudoPot. # 1 for C  read from file:
     ~/Documents/PWDFT.jl/pseudopotentials/scan_upf/C.SCAN.UPF
     MD5 check sum: Not computed, couldn't open file
     Pseudo is Norm-conserving, Zval =  4.0
     Generated by new atomic code, or converted to UPF format
     Using radial grid of 1389 points,  1 beta functions with:
                l(1) =   0

     atomic species   valence    mass     pseudopotential
        C              4.00    12.01100     C ( 1.00)

     48 Sym. Ops., with inversion, found (24 have fractional translation)

   Cartesian axes

     site n.     atom                  positions (alat units)
         1           C   tau(   1) = (   0.0000000   0.0000000   0.0000000  )
         2           C   tau(   2) = (   0.2500000   0.2500000   0.2500000  )

     number of k points=     4
                       cart. coord. in units 2pi/alat
        k(    1) = (   0.0000000   0.0000000   0.0000000), wk =   0.0740741
        k(    2) = (  -0.3333333   0.3333333  -0.3333333), wk =   0.5925926
        k(    3) = (   0.0000000   0.6666667   0.0000000), wk =   0.4444444
        k(    4) = (   0.6666667  -0.0000000   0.6666667), wk =   0.8888889

      on external parameters: check the user_guide of
      QE if you need to modify them or to check their
      default values.

     Initial potential from superposition of free atoms

     starting charge       7.9999, renormalised to       8.0000
     Starting wfcs are    8 randomized atomic wfcs

     Self-consistent Calculation

     iteration #  1     ecut=    50.00 Ry     beta= 0.01
     Davidson diagonalization with overlap
     ethr =  1.00E-02,  avg # of iterations =  1.0

     total energy              =     -21.92071460 Ry
     estimated scf accuracy    <       0.57729543 Ry

[...]

     End of self-consistent calculation

          k = 0.0000 0.0000 0.0000 (  1639 PWs)   bands (ev):

   -12.2576  -4.8718  -0.4270  -0.4270

          k =-0.3333 0.3333-0.3333 (  1616 PWs)   bands (ev):

[...]

     highest occupied level (ev):    -0.4270

!    total energy              =     -21.94116894 Ry
     estimated scf accuracy    <       0.00000029 Ry

     The total energy is the sum of the following terms:
     one-electron contribution =      -3.34792895 Ry
     hartree contribution      =       3.93864702 Ry
     xc contribution           =      -5.73603216 Ry
     ewald contribution        =     -16.79585484 Ry

     convergence has been achieved in  13 iterations
     Writing meta-gga kinetic term

     Forces acting on atoms (cartesian axes, Ry/au):

     atom    1 type  1   force =     0.00000000    0.00000000   -0.00000000
     atom    2 type  1   force =    -0.00000000   -0.00000000    0.00000000

     Total force =     0.000000     Total SCF correction =     0.000000

     Computing stress (Cartesian axis) and pressure

          total   stress  (Ry/bohr**3)                   (kbar)     P=     -348.66
  -0.00237016   0.00000000  -0.00000000         -348.66        0.00       -0.00
   0.00000000  -0.00237016  -0.00000000            0.00     -348.66       -0.00
  -0.00000000   0.00000000  -0.00237016           -0.00        0.00     -348.66

     BFGS Geometry Optimization
     Energy error            =      0.0E+00 Ry
     Gradient error          =      1.6E-32 Ry/Bohr
     Cell gradient error     =      3.5E+02 kbar

     number of scf cycles    =   1
     number of bfgs steps    =   0

     enthalpy           new  =     -21.9411689383 Ry

     new trust radius        =       0.1948209806 bohr
     new conv_thr            =       0.0000010000 Ry

     new unit-cell volume =    225.00532 a.u.^3 (    33.34235 Ang^3 )
     density =      1.19636 g/cm^3

CELL_PARAMETERS (alat= 10.26310000)
  -0.470372986  -0.000000000   0.470372986
  -0.000000000   0.470372986   0.470372986
  -0.470372986   0.470372986   0.000000000

ATOMIC_POSITIONS (alat)
C            -0.0000000000        0.0000000000       -0.0000000000
C             0.2351864928        0.2351864928        0.2351864928

     Writing config-only to output data dir ./pwscf.save/
     NEW-OLD atomic charge density approx. for the potential
     extrapolated charge    6.39113, renormalised to    8.00000

[...]

     Energy error            =      1.2E-01 Ry
     Gradient error          =      4.2E-31 Ry/Bohr
     Cell gradient error     =      4.5E+02 kbar

[...]

     enthalpy           old  =     -21.9411689383 Ry
     enthalpy           new  =     -22.0629330141 Ry

     CASE: enthalpy          _new < enthalpy          _old

     WARNING: bfgs curvature condition failed, Theta= 0.700
     uphill step: resetting bfgs history

[...]

     WARNING: bfgs curvature condition failed, Theta= 0.721
     uphill step: resetting bfgs history

[...]

     Writing config-only to output data dir ./pwscf.save/
     NEW-OLD atomic charge density approx. for the potential

     negative rho (up,down):  5.962E-03 0.000E+00
     extrapolated charge    3.22001, renormalised to    8.00000

[...]

     negative rho (up,down):  1.425E-02 0.000E+00

[...]

     negative rho (up,down):  5.638E-05 0.000E+00

[...]

     CASE: enthalpy          _new > enthalpy          _old

[...]

     number of scf cycles    =   7
     number of bfgs steps    =   5

     enthalpy           old  =     -22.7159197571 Ry
     enthalpy           new  =     -22.7178346568 Ry

     CASE: enthalpy          _new < enthalpy          _old

     new trust radius        =       0.0006197836 bohr
     new conv_thr            =       0.0000000100 Ry

     new unit-cell volume =     76.48949 a.u.^3 (    11.33457 Ang^3 )
     density =      3.51927 g/cm^3

[...]

ATOMIC_POSITIONS (alat)
C             0.0000000000        0.0000000000       -0.0000000000
C             0.1641403542        0.1641403542        0.1641403542

     Writing config-only to output data dir ./pwscf.save/
     NEW-OLD atomic charge density approx. for the potential
     extrapolated charge    7.99149, renormalised to    8.00000

[...]

     Energy error            =      1.2E-06 Ry
     Gradient error          =      1.0E-31 Ry/Bohr
     Cell gradient error     =      2.9E-01 kbar

     bfgs converged in   8 scf cycles and   6 bfgs steps
     (criteria: energy <  1.0E-04 Ry, force <  1.0E-03Ry/Bohr, cell <  5.0E-01kbar)

     End of BFGS Geometry Optimization

     Final enthalpy           =     -22.7178358205 Ry

     File ./pwscf.bfgs deleted, as requested
Begin final coordinates
     new unit-cell volume =     76.48949 a.u.^3 (    11.33457 Ang^3 )
     density =      3.51927 g/cm^3

CELL_PARAMETERS (alat= 10.26310000)
  -0.328280708   0.000000000   0.328280708
   0.000000000   0.328280708   0.328280708
  -0.328280708   0.328280708  -0.000000000

ATOMIC_POSITIONS (alat)
C             0.0000000000        0.0000000000       -0.0000000000
C             0.1641403542        0.1641403542        0.1641403542
End final coordinates

     Writing config-only to output data dir ./pwscf.save/

     Final scf calculation at the relaxed structure.
     The G-vectors are recalculated for the final unit cell
     Results may differ from those at the preceding step.

     Using Slab Decomposition

     bravais-lattice index     =            2
     lattice parameter (alat)  =      10.2631  a.u.
     unit-cell volume          =      76.4895 (a.u.)^3
     number of atoms/cell      =            2
     number of atomic types    =            1
     number of electrons       =         8.00
     number of Kohn-Sham states=            4
     kinetic-energy cutoff     =      50.0000  Ry
     charge density cutoff     =     200.0000  Ry
     scf convergence threshold =      1.0E-08
     mixing beta               =       0.0100
     number of iterations used =            8  local-TF  mixing
     press convergence thresh. =      5.0E-01
     Exchange-correlation= SLA  PW   SCAN SCAN
                           (   0   0   0   0   0 263 267)

     celldm(1)=  10.263100  celldm(2)=   0.000000  celldm(3)=   0.000000
     celldm(4)=   0.000000  celldm(5)=   0.000000  celldm(6)=   0.000000

     crystal axes: (cart. coord. in units of alat)
               a(1) = (  -0.328281   0.000000   0.328281 )
               a(2) = (   0.000000   0.328281   0.328281 )
               a(3) = (  -0.328281   0.328281  -0.000000 )

     reciprocal axes: (cart. coord. in units 2 pi/alat)
               b(1) = ( -1.523087 -1.523087  1.523087 )
               b(2) = (  1.523087  1.523087  1.523087 )
               b(3) = ( -1.523087  1.523087 -1.523087 )

     PseudoPot. # 1 for C  read from file:
     ~/Documents/PWDFT.jl/pseudopotentials/scan_upf/C.SCAN.UPF
     MD5 check sum: Not computed, couldn't open file
     Pseudo is Norm-conserving, Zval =  4.0
     Generated by new atomic code, or converted to UPF format
     Using radial grid of 1389 points,  1 beta functions with:
                l(1) =   0

     atomic species   valence    mass     pseudopotential
        C              4.00    12.01100     C ( 1.00)

     48 Sym. Ops., with inversion, found (24 have fractional translation)

   Cartesian axes

     site n.     atom                  positions (alat units)
         1           C   tau(   1) = (   0.0000000   0.0000000  -0.0000000  )
         2           C   tau(   2) = (   0.1641404   0.1641404   0.1641404  )

     number of k points=     4
                       cart. coord. in units 2pi/alat
        k(    1) = (   0.0000000   0.0000000   0.0000000), wk =   0.0740741
        k(    2) = (  -0.5076956   0.5076956  -0.5076956), wk =   0.5925926
        k(    3) = (   0.0000000   1.0153912   0.0000000), wk =   0.4444444
        k(    4) = (   1.0153912   0.0000000   1.0153912), wk =   0.8888889

      on external parameters: check the user_guide of
      QE if you need to modify them or to check their
      default values.

     Initial potential from superposition of free atoms

     starting charge       7.9999, renormalised to       8.0000
     Starting wfcs are    8 randomized atomic wfcs

     Self-consistent Calculation

[...]

     total energy              =     -22.69223109 Ry
     estimated scf accuracy    <       0.00000004 Ry

     iteration # 17     ecut=    50.00 Ry     beta= 0.01
     Davidson diagonalization with overlap
     ethr =  4.62E-10,  avg # of iterations =  1.5

     End of self-consistent calculation

[...]

          k =-0.5077 0.5077-0.5077 (   468 PWs)   bands (ev):

[...]

          k = 1.0154 0.0000 1.0154 (   456 PWs)   bands (ev):

    -1.3890   1.9055   3.6564   8.4731

     highest occupied level (ev):    13.3573

!    total energy              =     -22.69223109 Ry
     estimated scf accuracy    <          4.0E-10 Ry

     The total energy is the sum of the following terms:
     one-electron contribution =       8.00016525 Ry
     hartree contribution      =       1.98933202 Ry
     xc contribution           =      -7.10018429 Ry
     ewald contribution        =     -25.58154407 Ry

     convergence has been achieved in  17 iterations
     Writing meta-gga kinetic term

     Forces acting on atoms (cartesian axes, Ry/au):

     atom    1 type  1   force =     0.00000000    0.00000000    0.00000000
     atom    2 type  1   force =    -0.00000000   -0.00000000   -0.00000000

     Total force =     0.000000     Total SCF correction =     0.000000

     Computing stress (Cartesian axis) and pressure

          total   stress  (Ry/bohr**3)                   (kbar)     P=     -146.23
  -0.00099403  -0.00000000  -0.00000000         -146.23       -0.00       -0.00
  -0.00000000  -0.00099403   0.00000000           -0.00     -146.23        0.00
  -0.00000000   0.00000000  -0.00099403           -0.00        0.00     -146.23

     Writing all to output data dir ./pwscf.save/
     Writing meta-gga kinetic term

     General routines

     Parallel routines

   This run was terminated on:  13:53: 1  16Feb2023

   JOB DONE.