     Program PWSCF v.7.0 starts on 18Feb2023 at 14:42:25

     Waiting for input...
     Reading input from standard input

     Current dimensions of program PWSCF are:
     Max number of different atomic species (ntypx) = 10
     Max number of k-points (npk) =  40000
     Max angular momentum in pseudopotentials (lmaxx) =  4
     file Si.SCAN.UPF: wavefunction(s)  0D renormalized

     WARNING: the MGGA functional with ID    5 has been
     read together with other dft terms, but it should
     stand alone in order to work properly. The other
     terms will be ignored.

     Subspace diagonalization in iterative solution of the eigenvalue problem:
     a serial algorithm will be used

     Using Slab Decomposition

     bravais-lattice index     =            2
     lattice parameter (alat)  =      10.2631  a.u.
     unit-cell volume          =     270.2562 (a.u.)^3
     number of atoms/cell      =            2
     number of atomic types    =            1
     number of electrons       =         8.00
     number of Kohn-Sham states=            4
     kinetic-energy cutoff     =      50.0000  Ry
     charge density cutoff     =     200.0000  Ry
     scf convergence threshold =      1.0E-06
     mixing beta               =       0.0100
     number of iterations used =            8  local-TF  mixing
     energy convergence thresh.=      1.0E-04
     force convergence thresh. =      1.0E-03
     press convergence thresh. =      5.0E-01
     Exchange-correlation=  SLA  PW   SCAN SCAN
                           (   0   0   0   0   0 263 267)
     nstep                     =           50

     celldm(1)=  10.263100  celldm(2)=   0.000000  celldm(3)=   0.000000
     celldm(4)=   0.000000  celldm(5)=   0.000000  celldm(6)=   0.000000

     crystal axes: (cart. coord. in units of alat)
               a(1) = (  -0.500000   0.000000   0.500000 )
               a(2) = (   0.000000   0.500000   0.500000 )
               a(3) = (  -0.500000   0.500000   0.000000 )

     reciprocal axes: (cart. coord. in units 2 pi/alat)
               b(1) = ( -1.000000 -1.000000  1.000000 )
               b(2) = (  1.000000  1.000000  1.000000 )
               b(3) = ( -1.000000  1.000000 -1.000000 )

     PseudoPot. # 1 for Si read from file:
     ~/Documents/PWDFT.jl/pseudopotentials/scan_upf/Si.SCAN.UPF
     MD5 check sum: Not computed, couldn't open file
     Pseudo is Norm-conserving, Zval =  4.0
     Generated by new atomic code, or converted to UPF format
     Using radial grid of 1475 points,  2 beta functions with:
                l(1) =   0
                l(2) =   1

     atomic species   valence    mass     pseudopotential
        Si             4.00    28.08550     Si( 1.00)

     48 Sym. Ops., with inversion, found (24 have fractional translation)

   Cartesian axes

     site n.     atom                  positions (alat units)
         1           Si  tau(   1) = (   0.0000000   0.0000000   0.0000000  )
         2           Si  tau(   2) = (   0.2500000   0.2500000   0.2500000  )

     number of k points=    47
                       cart. coord. in units 2pi/alat
        k(    1) = (   0.0000000   0.0000000   0.0000000), wk =   0.0020000
        k(    2) = (  -0.1000000   0.1000000  -0.1000000), wk =   0.0160000
        k(    3) = (  -0.2000000   0.2000000  -0.2000000), wk =   0.0160000
        k(    4) = (  -0.3000000   0.3000000  -0.3000000), wk =   0.0160000
        k(    5) = (  -0.4000000   0.4000000  -0.4000000), wk =   0.0160000
        k(    6) = (   0.5000000  -0.5000000   0.5000000), wk =   0.0080000
        k(    7) = (   0.0000000   0.2000000   0.0000000), wk =   0.0120000
        k(    8) = (  -0.1000000   0.3000000  -0.1000000), wk =   0.0480000
        k(    9) = (  -0.2000000   0.4000000  -0.2000000), wk =   0.0480000
        k(   10) = (  -0.3000000   0.5000000  -0.3000000), wk =   0.0480000
        k(   11) = (   0.6000000  -0.4000000   0.6000000), wk =   0.0480000
        k(   12) = (   0.5000000  -0.3000000   0.5000000), wk =   0.0480000
        k(   13) = (   0.4000000  -0.2000000   0.4000000), wk =   0.0480000
        k(   14) = (   0.3000000  -0.1000000   0.3000000), wk =   0.0480000
        k(   15) = (   0.2000000   0.0000000   0.2000000), wk =   0.0240000
        k(   16) = (   0.0000000   0.4000000   0.0000000), wk =   0.0120000
        k(   17) = (  -0.1000000   0.5000000  -0.1000000), wk =   0.0480000
        k(   18) = (  -0.2000000   0.6000000  -0.2000000), wk =   0.0480000
        k(   19) = (   0.7000000  -0.3000000   0.7000000), wk =   0.0480000
        k(   20) = (   0.6000000  -0.2000000   0.6000000), wk =   0.0480000
        k(   21) = (   0.5000000  -0.1000000   0.5000000), wk =   0.0480000
        k(   22) = (   0.4000000   0.0000000   0.4000000), wk =   0.0240000
        k(   23) = (   0.0000000   0.6000000   0.0000000), wk =   0.0120000
        k(   24) = (  -0.1000000   0.7000000  -0.1000000), wk =   0.0480000
        k(   25) = (   0.8000000  -0.2000000   0.8000000), wk =   0.0480000
        k(   26) = (   0.7000000  -0.1000000   0.7000000), wk =   0.0480000
        k(   27) = (   0.6000000  -0.0000000   0.6000000), wk =   0.0240000
        k(   28) = (   0.0000000   0.8000000   0.0000000), wk =   0.0120000
        k(   29) = (   0.9000000  -0.1000000   0.9000000), wk =   0.0480000
        k(   30) = (   0.8000000   0.0000000   0.8000000), wk =   0.0240000
        k(   31) = (   0.0000000  -1.0000000   0.0000000), wk =   0.0060000
        k(   32) = (  -0.2000000   0.4000000   0.0000000), wk =   0.0480000
        k(   33) = (  -0.3000000   0.5000000  -0.1000000), wk =   0.0960000
        k(   34) = (   0.6000000  -0.4000000   0.8000000), wk =   0.0960000
        k(   35) = (   0.5000000  -0.3000000   0.7000000), wk =   0.0480000
        k(   36) = (  -0.2000000   0.6000000   0.0000000), wk =   0.0480000
        k(   37) = (   0.7000000  -0.3000000   0.9000000), wk =   0.0960000
        k(   38) = (   0.6000000  -0.2000000   0.8000000), wk =   0.0960000
        k(   39) = (   0.5000000  -0.1000000   0.7000000), wk =   0.0960000
        k(   40) = (   0.4000000   0.0000000   0.6000000), wk =   0.0480000
        k(   41) = (   0.8000000  -0.2000000   1.0000000), wk =   0.0480000
        k(   42) = (   0.7000000  -0.1000000   0.9000000), wk =   0.0960000
        k(   43) = (   0.6000000   0.0000000   0.8000000), wk =   0.0480000
        k(   44) = (  -0.2000000  -1.0000000   0.0000000), wk =   0.0240000
        k(   45) = (   0.6000000  -0.2000000   1.0000000), wk =   0.0480000
        k(   46) = (   0.5000000  -0.1000000   0.9000000), wk =   0.0480000
        k(   47) = (  -0.4000000  -1.0000000   0.0000000), wk =   0.0240000

      on external parameters: check the user_guide of
      QE if you need to modify them or to check their
      default values.

     Initial potential from superposition of free atoms

     starting charge       7.9990, renormalised to       8.0000
     Starting wfcs are   18 randomized atomic wfcs

     Self-consistent Calculation

     iteration #  1     ecut=    50.00 Ry     beta= 0.01
     Davidson diagonalization with overlap
     ethr =  1.00E-02,  avg # of iterations =  1.9

     Threshold (ethr) on eigenvalues was too large:
     Diagonalizing with lowered threshold

     Davidson diagonalization with overlap
     ethr =  7.50E-04,  avg # of iterations =  1.5

     total energy              =     -15.64718409 Ry
     estimated scf accuracy    <       0.06369659 Ry

[...]

     End of self-consistent calculation

          k = 0.0000 0.0000 0.0000 (  1639 PWs)   bands (ev):

    -6.2992   6.0102   6.0102   6.0102

          k =-0.1000 0.1000-0.1000 (  1606 PWs)   bands (ev):

[...]

     highest occupied level (ev):     6.0102

!    total energy              =     -15.75009089 Ry
     estimated scf accuracy    <       0.00000016 Ry

     The total energy is the sum of the following terms:
     one-electron contribution =       4.77378982 Ry
     hartree contribution      =       1.11241550 Ry
     xc contribution           =      -4.84044137 Ry
     ewald contribution        =     -16.79585484 Ry

     convergence has been achieved in  15 iterations
     Writing meta-gga kinetic term

     Forces acting on atoms (cartesian axes, Ry/au):

     atom    1 type  1   force =    -0.00000000   -0.00000000   -0.00000000
     atom    2 type  1   force =     0.00000000    0.00000000    0.00000000

     Total force =     0.000000     Total SCF correction =     0.000000

     Computing stress (Cartesian axis) and pressure

          total   stress  (Ry/bohr**3)                   (kbar)     P=       -8.62
  -0.00005862   0.00000000   0.00000000           -8.62        0.00        0.00
  -0.00000000  -0.00005862   0.00000000           -0.00       -8.62        0.00
   0.00000000   0.00000000  -0.00005862            0.00        0.00       -8.62

     BFGS Geometry Optimization
     Energy error            =      0.0E+00 Ry
     Gradient error          =      2.1E-33 Ry/Bohr
     Cell gradient error     =      8.6E+00 kbar

     number of scf cycles    =   1
     number of bfgs steps    =   0

     enthalpy           new  =     -15.7500908875 Ry

     new trust radius        =       0.0048182071 bohr
     new conv_thr            =       0.0000010000 Ry

     new unit-cell volume =    269.06982 a.u.^3 (    39.87203 Ang^3 )
     density =      2.33934 g/cm^3

CELL_PARAMETERS (alat= 10.26310000)
  -0.499267281   0.000000000   0.499267281
   0.000000000   0.499267281   0.499267281
  -0.499267281   0.499267281   0.000000000

ATOMIC_POSITIONS (alat)
Si           -0.0000000000       -0.0000000000       -0.0000000000
Si            0.2496336404        0.2496336404        0.2496336404

     Writing config-only to output data dir ./pwscf.save/
     NEW-OLD atomic charge density approx. for the potential
     extrapolated charge    7.96473, renormalised to    8.00000

[...]

     Threshold (ethr) on eigenvalues was too large:
     Diagonalizing with lowered threshold

     Davidson diagonalization with overlap
     ethr =  9.98E-08,  avg # of iterations =  1.3

[...]

     Energy error            =      5.4E-05 Ry
     Gradient error          =      2.1E-31 Ry/Bohr
     Cell gradient error     =      4.6E+00 kbar

     number of scf cycles    =   2
     number of bfgs steps    =   1

     enthalpy           old  =     -15.7500908875 Ry
     enthalpy           new  =     -15.7501448885 Ry

     CASE: enthalpy          _new < enthalpy          _old

     new trust radius        =       0.0055059284 bohr
     new conv_thr            =       0.0000000100 Ry

     new unit-cell volume =    267.71736 a.u.^3 (    39.67162 Ang^3 )
     density =      2.35116 g/cm^3

[...]

ATOMIC_POSITIONS (alat)
Si           -0.0000000000       -0.0000000000        0.0000000000
Si            0.2492146817        0.2492146817        0.2492146817

     Writing config-only to output data dir ./pwscf.save/
     NEW-OLD atomic charge density approx. for the potential
     extrapolated charge    7.95959, renormalised to    8.00000

[...]

     Energy error            =      2.0E-05 Ry
     Gradient error          =      3.9E-32 Ry/Bohr
     Cell gradient error     =      2.4E-01 kbar

     bfgs converged in   3 scf cycles and   2 bfgs steps
     (criteria: energy <  1.0E-04 Ry, force <  1.0E-03Ry/Bohr, cell <  5.0E-01kbar)

     End of BFGS Geometry Optimization

     Final enthalpy           =     -15.7501651125 Ry

     File ./pwscf.bfgs deleted, as requested
Begin final coordinates
     new unit-cell volume =    267.71736 a.u.^3 (    39.67162 Ang^3 )
     density =      2.35116 g/cm^3

CELL_PARAMETERS (alat= 10.26310000)
  -0.498429363   0.000000000   0.498429363
  -0.000000000   0.498429363   0.498429363
  -0.498429363   0.498429363   0.000000000

ATOMIC_POSITIONS (alat)
Si           -0.0000000000       -0.0000000000        0.0000000000
Si            0.2492146817        0.2492146817        0.2492146817
End final coordinates

     Writing config-only to output data dir ./pwscf.save/

     Final scf calculation at the relaxed structure.
     The G-vectors are recalculated for the final unit cell
     Results may differ from those at the preceding step.

     Using Slab Decomposition

     bravais-lattice index     =            2
     lattice parameter (alat)  =      10.2631  a.u.
     unit-cell volume          =     267.7174 (a.u.)^3
     number of atoms/cell      =            2
     number of atomic types    =            1
     number of electrons       =         8.00
     number of Kohn-Sham states=            4
     kinetic-energy cutoff     =      50.0000  Ry
     charge density cutoff     =     200.0000  Ry
     scf convergence threshold =      1.0E-08
     mixing beta               =       0.0100
     number of iterations used =            8  local-TF  mixing
     press convergence thresh. =      5.0E-01
     Exchange-correlation=  SLA  PW   SCAN SCAN
                           (   0   0   0   0   0 263 267)

     celldm(1)=  10.263100  celldm(2)=   0.000000  celldm(3)=   0.000000
     celldm(4)=   0.000000  celldm(5)=   0.000000  celldm(6)=   0.000000

     crystal axes: (cart. coord. in units of alat)
               a(1) = (  -0.498429   0.000000   0.498429 )
               a(2) = (  -0.000000   0.498429   0.498429 )
               a(3) = (  -0.498429   0.498429   0.000000 )

     reciprocal axes: (cart. coord. in units 2 pi/alat)
               b(1) = ( -1.003151 -1.003151  1.003151 )
               b(2) = (  1.003151  1.003151  1.003151 )
               b(3) = ( -1.003151  1.003151 -1.003151 )

     PseudoPot. # 1 for Si read from file:
     ~/Documents/PWDFT.jl/pseudopotentials/scan_upf/Si.SCAN.UPF
     MD5 check sum: Not computed, couldn't open file
     Pseudo is Norm-conserving, Zval =  4.0
     Generated by new atomic code, or converted to UPF format
     Using radial grid of 1475 points,  2 beta functions with:
                l(1) =   0
                l(2) =   1

     atomic species   valence    mass     pseudopotential
        Si             4.00    28.08550     Si( 1.00)

     48 Sym. Ops., with inversion, found (24 have fractional translation)

   Cartesian axes

     site n.     atom                  positions (alat units)
         1           Si  tau(   1) = (  -0.0000000  -0.0000000   0.0000000  )
         2           Si  tau(   2) = (   0.2492147   0.2492147   0.2492147  )

     number of k points=    47
                       cart. coord. in units 2pi/alat
        k(    1) = (   0.0000000   0.0000000   0.0000000), wk =   0.0020000
        k(    2) = (  -0.1003151   0.1003151  -0.1003151), wk =   0.0160000
        k(    3) = (  -0.2006302   0.2006302  -0.2006302), wk =   0.0160000
        k(    4) = (  -0.3009454   0.3009454  -0.3009454), wk =   0.0160000
        k(    5) = (  -0.4012605   0.4012605  -0.4012605), wk =   0.0160000
        k(    6) = (   0.5015756  -0.5015756   0.5015756), wk =   0.0080000
        k(    7) = (   0.0000000   0.2006302   0.0000000), wk =   0.0120000
        k(    8) = (  -0.1003151   0.3009454  -0.1003151), wk =   0.0480000
        k(    9) = (  -0.2006302   0.4012605  -0.2006302), wk =   0.0480000
        k(   10) = (  -0.3009454   0.5015756  -0.3009454), wk =   0.0480000
        k(   11) = (   0.6018907  -0.4012605   0.6018907), wk =   0.0480000
        k(   12) = (   0.5015756  -0.3009454   0.5015756), wk =   0.0480000
        k(   13) = (   0.4012605  -0.2006302   0.4012605), wk =   0.0480000
        k(   14) = (   0.3009454  -0.1003151   0.3009454), wk =   0.0480000
        k(   15) = (   0.2006302   0.0000000   0.2006302), wk =   0.0240000
        k(   16) = (   0.0000000   0.4012605   0.0000000), wk =   0.0120000
        k(   17) = (  -0.1003151   0.5015756  -0.1003151), wk =   0.0480000
        k(   18) = (  -0.2006302   0.6018907  -0.2006302), wk =   0.0480000
        k(   19) = (   0.7022058  -0.3009454   0.7022058), wk =   0.0480000
        k(   20) = (   0.6018907  -0.2006302   0.6018907), wk =   0.0480000
        k(   21) = (   0.5015756  -0.1003151   0.5015756), wk =   0.0480000
        k(   22) = (   0.4012605   0.0000000   0.4012605), wk =   0.0240000
        k(   23) = (   0.0000000   0.6018907   0.0000000), wk =   0.0120000
        k(   24) = (  -0.1003151   0.7022058  -0.1003151), wk =   0.0480000
        k(   25) = (   0.8025209  -0.2006302   0.8025209), wk =   0.0480000
        k(   26) = (   0.7022058  -0.1003151   0.7022058), wk =   0.0480000
        k(   27) = (   0.6018907   0.0000000   0.6018907), wk =   0.0240000
        k(   28) = (   0.0000000   0.8025209   0.0000000), wk =   0.0120000
        k(   29) = (   0.9028361  -0.1003151   0.9028361), wk =   0.0480000
        k(   30) = (   0.8025209   0.0000000   0.8025209), wk =   0.0240000
        k(   31) = (   0.0000000  -1.0031512   0.0000000), wk =   0.0060000
        k(   32) = (  -0.2006302   0.4012605   0.0000000), wk =   0.0480000
        k(   33) = (  -0.3009454   0.5015756  -0.1003151), wk =   0.0960000
        k(   34) = (   0.6018907  -0.4012605   0.8025209), wk =   0.0960000
        k(   35) = (   0.5015756  -0.3009454   0.7022058), wk =   0.0480000
        k(   36) = (  -0.2006302   0.6018907   0.0000000), wk =   0.0480000
        k(   37) = (   0.7022058  -0.3009454   0.9028361), wk =   0.0960000
        k(   38) = (   0.6018907  -0.2006302   0.8025209), wk =   0.0960000
        k(   39) = (   0.5015756  -0.1003151   0.7022058), wk =   0.0960000
        k(   40) = (   0.4012605  -0.0000000   0.6018907), wk =   0.0480000
        k(   41) = (   0.8025209  -0.2006302   1.0031512), wk =   0.0480000
        k(   42) = (   0.7022058  -0.1003151   0.9028361), wk =   0.0960000
        k(   43) = (   0.6018907   0.0000000   0.8025209), wk =   0.0480000
        k(   44) = (  -0.2006302  -1.0031512   0.0000000), wk =   0.0240000
        k(   45) = (   0.6018907  -0.2006302   1.0031512), wk =   0.0480000
        k(   46) = (   0.5015756  -0.1003151   0.9028361), wk =   0.0480000
        k(   47) = (  -0.4012605  -1.0031512   0.0000000), wk =   0.0240000

      on external parameters: check the user_guide of
      QE if you need to modify them or to check their
      default values.

     Initial potential from superposition of free atoms

     starting charge       7.9990, renormalised to       8.0000
     Starting wfcs are   18 randomized atomic wfcs

     Self-consistent Calculation

[...]

     total energy              =     -15.75016292 Ry
     estimated scf accuracy    <       0.00000025 Ry

     iteration # 17     ecut=    50.00 Ry     beta= 0.01
     Davidson diagonalization with overlap
     ethr =  3.14E-09,  avg # of iterations =  2.0

     End of self-consistent calculation

[...]

          k = 0.5016-0.1003 0.9028 (  1596 PWs)   bands (ev):

[...]

          k =-0.4013-1.0032 0.0000 (  1612 PWs)   bands (ev):

    -1.7277  -1.7277   2.2452   2.2452

     highest occupied level (ev):     6.1081

!    total energy              =     -15.75016303 Ry
     estimated scf accuracy    <          3.7E-09 Ry

     The total energy is the sum of the following terms:
     one-electron contribution =       4.84494389 Ry
     hartree contribution      =       1.10447555 Ry
     xc contribution           =      -4.85080100 Ry
     ewald contribution        =     -16.84878147 Ry

     convergence has been achieved in  17 iterations
     Writing meta-gga kinetic term

     Forces acting on atoms (cartesian axes, Ry/au):

     atom    1 type  1   force =    -0.00000000    0.00000000   -0.00000000
     atom    2 type  1   force =    -0.00000000   -0.00000000   -0.00000000

     Total force =     0.000000     Total SCF correction =     0.000000

     Computing stress (Cartesian axis) and pressure

          total   stress  (Ry/bohr**3)                   (kbar)     P=        0.24
   0.00000161   0.00000000   0.00000000            0.24        0.00        0.00
  -0.00000000   0.00000161   0.00000000           -0.00        0.24        0.00
  -0.00000000   0.00000000   0.00000161           -0.00        0.00        0.24

     Writing all to output data dir ./pwscf.save/
     Writing meta-gga kinetic term

     General routines

     Parallel routines

   This run was terminated on:  14:43:37  18Feb2023

   JOB DONE.