     Program PWSCF v.7.0 starts on 16Feb2023 at 14: 1:28

     Waiting for input...
     Reading input from standard input

     Current dimensions of program PWSCF are:
     Max number of different atomic species (ntypx) = 10
     Max number of k-points (npk) =  40000
     Max angular momentum in pseudopotentials (lmaxx) =  4
     file Si.SCAN.UPF: wavefunction(s)  0D renormalized

     WARNING: the MGGA functional with ID    5 has been
     read together with other dft terms, but it should
     stand alone in order to work properly. The other
     terms will be ignored.

     Subspace diagonalization in iterative solution of the eigenvalue problem:
     a serial algorithm will be used

     Using Slab Decomposition

     bravais-lattice index     =            2
     lattice parameter (alat)  =      10.2631  a.u.
     unit-cell volume          =     270.2562 (a.u.)^3
     number of atoms/cell      =            2
     number of atomic types    =            1
     number of electrons       =         8.00
     number of Kohn-Sham states=            4
     kinetic-energy cutoff     =      50.0000  Ry
     charge density cutoff     =     200.0000  Ry
     scf convergence threshold =      1.0E-06
     mixing beta               =       0.0100
     number of iterations used =            8  local-TF  mixing
     energy convergence thresh.=      1.0E-04
     force convergence thresh. =      1.0E-03
     press convergence thresh. =      5.0E-01
     Exchange-correlation=  SLA  PW   SCAN SCAN
                           (   0   0   0   0   0 263 267)
     nstep                     =           50

     celldm(1)=  10.263100  celldm(2)=   0.000000  celldm(3)=   0.000000
     celldm(4)=   0.000000  celldm(5)=   0.000000  celldm(6)=   0.000000

     crystal axes: (cart. coord. in units of alat)
               a(1) = (  -0.500000   0.000000   0.500000 )
               a(2) = (   0.000000   0.500000   0.500000 )
               a(3) = (  -0.500000   0.500000   0.000000 )

     reciprocal axes: (cart. coord. in units 2 pi/alat)
               b(1) = ( -1.000000 -1.000000  1.000000 )
               b(2) = (  1.000000  1.000000  1.000000 )
               b(3) = ( -1.000000  1.000000 -1.000000 )

     PseudoPot. # 1 for Si read from file:
     ~/Documents/PWDFT.jl/pseudopotentials/scan_upf/Si.SCAN.UPF
     MD5 check sum: Not computed, couldn't open file
     Pseudo is Norm-conserving, Zval =  4.0
     Generated by new atomic code, or converted to UPF format
     Using radial grid of 1475 points,  2 beta functions with:
                l(1) =   0
                l(2) =   1

     atomic species   valence    mass     pseudopotential
        Si             4.00    28.08550     Si( 1.00)

     48 Sym. Ops., with inversion, found (24 have fractional translation)

   Cartesian axes

     site n.     atom                  positions (alat units)
         1           Si  tau(   1) = (   0.0000000   0.0000000   0.0000000  )
         2           Si  tau(   2) = (   0.2500000   0.2500000   0.2500000  )

     number of k points=     4
                       cart. coord. in units 2pi/alat
        k(    1) = (   0.0000000   0.0000000   0.0000000), wk =   0.0740741
        k(    2) = (  -0.3333333   0.3333333  -0.3333333), wk =   0.5925926
        k(    3) = (   0.0000000   0.6666667   0.0000000), wk =   0.4444444
        k(    4) = (   0.6666667  -0.0000000   0.6666667), wk =   0.8888889

      on external parameters: check the user_guide of
      QE if you need to modify them or to check their
      default values.

     Initial potential from superposition of free atoms

     starting charge       7.9990, renormalised to       8.0000
     Starting wfcs are   18 randomized atomic wfcs

     Self-consistent Calculation

     iteration #  1     ecut=    50.00 Ry     beta= 0.01
     Davidson diagonalization with overlap
     ethr =  1.00E-02,  avg # of iterations =  2.0

     Threshold (ethr) on eigenvalues was too large:
     Diagonalizing with lowered threshold

     Davidson diagonalization with overlap
     ethr =  9.42E-04,  avg # of iterations =  1.5

     total energy              =     -15.60121934 Ry
     estimated scf accuracy    <       0.07954142 Ry

[...]

     End of self-consistent calculation

          k = 0.0000 0.0000 0.0000 (  1639 PWs)   bands (ev):

    -6.2186   6.1016   6.1016   6.1016

          k =-0.3333 0.3333-0.3333 (  1616 PWs)   bands (ev):

[...]

     highest occupied level (ev):     6.1016

!    total energy              =     -15.70859905 Ry
     estimated scf accuracy    <       0.00000035 Ry

     The total energy is the sum of the following terms:
     one-electron contribution =       4.78806875 Ry
     hartree contribution      =       1.16507161 Ry
     xc contribution           =      -4.86588457 Ry
     ewald contribution        =     -16.79585484 Ry

     convergence has been achieved in  13 iterations
     Writing meta-gga kinetic term

     Forces acting on atoms (cartesian axes, Ry/au):

     atom    1 type  1   force =    -0.00000000    0.00000000   -0.00000000
     atom    2 type  1   force =     0.00000000   -0.00000000    0.00000000

     Total force =     0.000000     Total SCF correction =     0.000000

     Computing stress (Cartesian axis) and pressure

          total   stress  (Ry/bohr**3)                   (kbar)     P=        8.95
   0.00006084   0.00000000   0.00000000            8.95        0.00        0.00
   0.00000000   0.00006084  -0.00000000            0.00        8.95       -0.00
   0.00000000  -0.00000000   0.00006084            0.00       -0.00        8.95

     BFGS Geometry Optimization
     Energy error            =      0.0E+00 Ry
     Gradient error          =      2.1E-33 Ry/Bohr
     Cell gradient error     =      8.9E+00 kbar

     number of scf cycles    =   1
     number of bfgs steps    =   0

     enthalpy           new  =     -15.7085990526 Ry

     new trust radius        =       0.0050006006 bohr
     new conv_thr            =       0.0000010000 Ry

     new unit-cell volume =    271.49120 a.u.^3 (    40.23085 Ang^3 )
     density =      2.31847 g/cm^3

CELL_PARAMETERS (alat= 10.26310000)
  -0.500760456   0.000000000   0.500760456
   0.000000000   0.500760456   0.500760456
  -0.500760456   0.500760456  -0.000000000

ATOMIC_POSITIONS (alat)
Si           -0.0000000000        0.0000000000       -0.0000000000
Si            0.2503802282        0.2503802282        0.2503802282

     Writing config-only to output data dir ./pwscf.save/
     NEW-OLD atomic charge density approx. for the potential
     extrapolated charge    8.03639, renormalised to    8.00000

[...]

     Energy error            =      5.9E-05 Ry
     Gradient error          =      4.9E-32 Ry/Bohr
     Cell gradient error     =      4.5E+00 kbar

     number of scf cycles    =   2
     number of bfgs steps    =   1

     enthalpy           old  =     -15.7085990526 Ry
     enthalpy           new  =     -15.7086578940 Ry

     CASE: enthalpy          _new < enthalpy          _old

     new trust radius        =       0.0051732138 bohr
     new conv_thr            =       0.0000000100 Ry

     new unit-cell volume =    272.77179 a.u.^3 (    40.42061 Ang^3 )
     density =      2.30759 g/cm^3

[...]

ATOMIC_POSITIONS (alat)
Si           -0.0000000000       -0.0000000000       -0.0000000000
Si            0.2507732825        0.2507732825        0.2507732825

     Writing config-only to output data dir ./pwscf.save/
     NEW-OLD atomic charge density approx. for the potential
     extrapolated charge    8.03755, renormalised to    8.00000

[...]

     Energy error            =      2.0E-05 Ry
     Gradient error          =      1.1E-31 Ry/Bohr
     Cell gradient error     =      4.1E-02 kbar

     bfgs converged in   3 scf cycles and   2 bfgs steps
     (criteria: energy <  1.0E-04 Ry, force <  1.0E-03Ry/Bohr, cell <  5.0E-01kbar)

     End of BFGS Geometry Optimization

     Final enthalpy           =     -15.7086776876 Ry

     File ./pwscf.bfgs deleted, as requested
Begin final coordinates
     new unit-cell volume =    272.77179 a.u.^3 (    40.42061 Ang^3 )
     density =      2.30759 g/cm^3

CELL_PARAMETERS (alat= 10.26310000)
  -0.501546565  -0.000000000   0.501546565
   0.000000000   0.501546565   0.501546565
  -0.501546565   0.501546565   0.000000000

ATOMIC_POSITIONS (alat)
Si           -0.0000000000       -0.0000000000       -0.0000000000
Si            0.2507732825        0.2507732825        0.2507732825
End final coordinates

     Writing config-only to output data dir ./pwscf.save/

     Final scf calculation at the relaxed structure.
     The G-vectors are recalculated for the final unit cell
     Results may differ from those at the preceding step.

     Using Slab Decomposition

     bravais-lattice index     =            2
     lattice parameter (alat)  =      10.2631  a.u.
     unit-cell volume          =     272.7718 (a.u.)^3
     number of atoms/cell      =            2
     number of atomic types    =            1
     number of electrons       =         8.00
     number of Kohn-Sham states=            4
     kinetic-energy cutoff     =      50.0000  Ry
     charge density cutoff     =     200.0000  Ry
     scf convergence threshold =      1.0E-08
     mixing beta               =       0.0100
     number of iterations used =            8  local-TF  mixing
     press convergence thresh. =      5.0E-01
     Exchange-correlation=  SLA  PW   SCAN SCAN
                           (   0   0   0   0   0 263 267)

     celldm(1)=  10.263100  celldm(2)=   0.000000  celldm(3)=   0.000000
     celldm(4)=   0.000000  celldm(5)=   0.000000  celldm(6)=   0.000000

     crystal axes: (cart. coord. in units of alat)
               a(1) = (  -0.501547  -0.000000   0.501547 )
               a(2) = (   0.000000   0.501547   0.501547 )
               a(3) = (  -0.501547   0.501547   0.000000 )

     reciprocal axes: (cart. coord. in units 2 pi/alat)
               b(1) = ( -0.996916 -0.996916  0.996916 )
               b(2) = (  0.996916  0.996916  0.996916 )
               b(3) = ( -0.996916  0.996916 -0.996916 )

     PseudoPot. # 1 for Si read from file:
     ~/Documents/PWDFT.jl/pseudopotentials/scan_upf/Si.SCAN.UPF
     MD5 check sum: Not computed, couldn't open file
     Pseudo is Norm-conserving, Zval =  4.0
     Generated by new atomic code, or converted to UPF format
     Using radial grid of 1475 points,  2 beta functions with:
                l(1) =   0
                l(2) =   1

     atomic species   valence    mass     pseudopotential
        Si             4.00    28.08550     Si( 1.00)

     48 Sym. Ops., with inversion, found (24 have fractional translation)

   Cartesian axes

     site n.     atom                  positions (alat units)
         1           Si  tau(   1) = (  -0.0000000  -0.0000000  -0.0000000  )
         2           Si  tau(   2) = (   0.2507733   0.2507733   0.2507733  )

     number of k points=     4
                       cart. coord. in units 2pi/alat
        k(    1) = (   0.0000000   0.0000000   0.0000000), wk =   0.0740741
        k(    2) = (  -0.3323055   0.3323055  -0.3323055), wk =   0.5925926
        k(    3) = (   0.0000000   0.6646109   0.0000000), wk =   0.4444444
        k(    4) = (   0.6646109   0.0000000   0.6646109), wk =   0.8888889

      on external parameters: check the user_guide of
      QE if you need to modify them or to check their
      default values.

     Initial potential from superposition of free atoms

     starting charge       7.9990, renormalised to       8.0000
     Starting wfcs are   18 randomized atomic wfcs

     Self-consistent Calculation

[...]

     total energy              =     -15.70867901 Ry
     estimated scf accuracy    <       0.00000012 Ry

     iteration # 16     ecut=    50.00 Ry     beta= 0.01
     Davidson diagonalization with overlap
     ethr =  1.40E-09,  avg # of iterations =  3.0

     End of self-consistent calculation

[...]

          k =-0.3323 0.3323-0.3323 (  1634 PWs)   bands (ev):

[...]

          k = 0.6646 0.0000 0.6646 (  1624 PWs)   bands (ev):

    -2.8519  -0.8524   1.5396   3.8607

     highest occupied level (ev):     6.0063

!    total energy              =     -15.70867922 Ry
     estimated scf accuracy    <          3.3E-09 Ry

     The total energy is the sum of the following terms:
     one-electron contribution =       4.71850886 Ry
     hartree contribution      =       1.17233010 Ry
     xc contribution           =      -4.85545491 Ry
     ewald contribution        =     -16.74406327 Ry

     convergence has been achieved in  16 iterations
     Writing meta-gga kinetic term

     Forces acting on atoms (cartesian axes, Ry/au):

     atom    1 type  1   force =     0.00000000    0.00000000    0.00000000
     atom    2 type  1   force =     0.00000000    0.00000000    0.00000000

     Total force =     0.000000     Total SCF correction =     0.000000

     Computing stress (Cartesian axis) and pressure

          total   stress  (Ry/bohr**3)                   (kbar)     P=       -0.05
  -0.00000033  -0.00000000  -0.00000000           -0.05       -0.00       -0.00
   0.00000000  -0.00000033   0.00000000            0.00       -0.05        0.00
  -0.00000000  -0.00000000  -0.00000033           -0.00       -0.00       -0.05

     Writing all to output data dir ./pwscf.save/
     Writing meta-gga kinetic term

     General routines

     Parallel routines

   This run was terminated on:  14: 1:37  16Feb2023

   JOB DONE.