     Program PWSCF v.7.0 starts on 24Mar2023 at 10:44:59

     Waiting for input...
     Reading input from standard input

     Current dimensions of program PWSCF are:
     Max number of different atomic species (ntypx) = 10
     Max number of k-points (npk) =  40000
     Max angular momentum in pseudopotentials (lmaxx) =  4

     WARNING: the MGGA functional with ID    5 has been
     read together with other dft terms, but it should
     stand alone in order to work properly. The other
     terms will be ignored.

     Subspace diagonalization in iterative solution of the eigenvalue problem:
     a serial algorithm will be used

     Using Slab Decomposition

     bravais-lattice index     =            3
     lattice parameter (alat)  =      10.2631  a.u.
     unit-cell volume          =     540.5124 (a.u.)^3
     number of atoms/cell      =            1
     number of atomic types    =            1
     number of electrons       =         1.00
     number of Kohn-Sham states=            5
     kinetic-energy cutoff     =      50.0000  Ry
     charge density cutoff     =     200.0000  Ry
     scf convergence threshold =      1.0E-06
     mixing beta               =       0.0100
     number of iterations used =            8  local-TF  mixing
     energy convergence thresh.=      1.0E-04
     force convergence thresh. =      1.0E-03
     press convergence thresh. =      5.0E-01
     Exchange-correlation= SLA  PW   SCAN SCAN
                           (   0   0   0   0   0 263 267)
     nstep                     =           50

     celldm(1)=  10.263100  celldm(2)=   0.000000  celldm(3)=   0.000000
     celldm(4)=   0.000000  celldm(5)=   0.000000  celldm(6)=   0.000000

     crystal axes: (cart. coord. in units of alat)
               a(1) = (   0.500000   0.500000   0.500000 )
               a(2) = (  -0.500000   0.500000   0.500000 )
               a(3) = (  -0.500000  -0.500000   0.500000 )

     reciprocal axes: (cart. coord. in units 2 pi/alat)
               b(1) = (  1.000000  0.000000  1.000000 )
               b(2) = ( -1.000000  1.000000  0.000000 )
               b(3) = (  0.000000 -1.000000  1.000000 )

     PseudoPot. # 1 for Li read from file:
     ~/Documents/TA/PWDFT.jl/pseudopotentials/scan_upf/Li.SCAN.UPF2
     MD5 check sum: Not computed, couldn't open file
     Pseudo is Norm-conserving, Zval =  1.0
     Generated by new atomic code, or converted to UPF format
     Using radial grid of 1321 points,  1 beta functions with:
                l(1) =   0

     atomic species   valence    mass     pseudopotential
        Li             1.00     6.94100     Li( 1.00)

     48 Sym. Ops., with inversion, found

   Cartesian axes

     site n.     atom                  positions (alat units)
         1           Li  tau(   1) = (   0.0000000   0.0000000   0.0000000  )

     number of k points=    47  Gaussian smearing, width (Ry)=  0.1000
                       cart. coord. in units 2pi/alat
        k(    1) = (   0.0000000   0.0000000   0.0000000), wk =   0.0020000
        k(    2) = (   0.0000000  -0.1000000   0.1000000), wk =   0.0240000
        k(    3) = (   0.0000000  -0.2000000   0.2000000), wk =   0.0240000
        k(    4) = (   0.0000000  -0.3000000   0.3000000), wk =   0.0240000
        k(    5) = (   0.0000000  -0.4000000   0.4000000), wk =   0.0240000
        k(    6) = (   0.0000000   0.5000000  -0.5000000), wk =   0.0120000
        k(    7) = (  -0.1000000  -0.1000000   0.2000000), wk =   0.0480000
        k(    8) = (  -0.1000000  -0.2000000   0.3000000), wk =   0.0960000
        k(    9) = (  -0.1000000  -0.3000000   0.4000000), wk =   0.0960000
        k(   10) = (  -0.1000000   0.6000000  -0.5000000), wk =   0.0960000
        k(   11) = (  -0.2000000  -0.2000000   0.4000000), wk =   0.0480000
        k(   12) = (  -0.2000000   0.7000000  -0.5000000), wk =   0.0960000
        k(   13) = (  -0.2000000   0.6000000  -0.4000000), wk =   0.0480000
        k(   14) = (  -0.3000000   0.7000000  -0.4000000), wk =   0.0480000
        k(   15) = (   0.0000000   0.0000000   0.2000000), wk =   0.0120000
        k(   16) = (   0.0000000  -0.1000000   0.3000000), wk =   0.0480000
        k(   17) = (   0.0000000  -0.2000000   0.4000000), wk =   0.0480000
        k(   18) = (   0.0000000  -0.3000000   0.5000000), wk =   0.0480000
        k(   19) = (   0.0000000   0.6000000  -0.4000000), wk =   0.0240000
        k(   20) = (  -0.1000000  -0.1000000   0.4000000), wk =   0.0480000
        k(   21) = (  -0.1000000  -0.2000000   0.5000000), wk =   0.0960000
        k(   22) = (  -0.1000000   0.7000000  -0.4000000), wk =   0.0960000
        k(   23) = (  -0.2000000   0.2000000   0.2000000), wk =   0.0160000
        k(   24) = (  -0.2000000   0.8000000  -0.4000000), wk =   0.0480000
        k(   25) = (  -0.2000000   0.7000000  -0.3000000), wk =   0.0480000
        k(   26) = (  -0.3000000   0.3000000   0.2000000), wk =   0.0480000
        k(   27) = (   0.6000000  -0.6000000   0.2000000), wk =   0.0480000
        k(   28) = (   0.6000000  -0.7000000   0.3000000), wk =   0.0480000
        k(   29) = (   0.5000000  -0.5000000   0.2000000), wk =   0.0240000
        k(   30) = (   0.5000000  -0.6000000   0.3000000), wk =   0.0960000
        k(   31) = (   0.4000000  -0.6000000   0.4000000), wk =   0.0160000
        k(   32) = (   0.0000000   0.0000000   0.4000000), wk =   0.0120000
        k(   33) = (   0.0000000  -0.1000000   0.5000000), wk =   0.0480000
        k(   34) = (   0.0000000  -0.2000000   0.6000000), wk =   0.0480000
        k(   35) = (   0.0000000   0.7000000  -0.3000000), wk =   0.0240000
        k(   36) = (  -0.1000000  -0.1000000   0.6000000), wk =   0.0480000
        k(   37) = (  -0.1000000   0.8000000  -0.3000000), wk =   0.0960000
        k(   38) = (  -0.2000000   0.8000000  -0.2000000), wk =   0.0160000
        k(   39) = (   0.6000000  -0.6000000   0.4000000), wk =   0.0160000
        k(   40) = (   0.5000000  -0.5000000   0.4000000), wk =   0.0240000
        k(   41) = (   0.0000000   0.0000000   0.6000000), wk =   0.0120000
        k(   42) = (   0.0000000  -0.1000000   0.7000000), wk =   0.0480000
        k(   43) = (   0.0000000   0.8000000  -0.2000000), wk =   0.0240000
        k(   44) = (  -0.1000000   0.9000000  -0.2000000), wk =   0.0480000
        k(   45) = (   0.0000000   0.0000000   0.8000000), wk =   0.0120000
        k(   46) = (   0.0000000   0.9000000  -0.1000000), wk =   0.0240000
        k(   47) = (   0.0000000   0.0000000  -1.0000000), wk =   0.0020000

      on external parameters: check the user_guide of
      QE if you need to modify them or to check their
      default values.

     Initial potential from superposition of free atoms

     starting charge       0.9953, renormalised to       1.0000
     Starting wfcs are    4 randomized atomic wfcs +    1 random wfcs

     Self-consistent Calculation

     iteration #  1     ecut=    50.00 Ry     beta= 0.01
     Davidson diagonalization with overlap
     ethr =  1.00E-02,  avg # of iterations =  6.2

     Threshold (ethr) on eigenvalues was too large:
     Diagonalizing with lowered threshold

     Davidson diagonalization with overlap
     ethr =  1.08E-04,  avg # of iterations =  4.3

     total energy              =      -0.47344000 Ry
     estimated scf accuracy    <       0.00100553 Ry

[...]

     iteration #  7     ecut=    50.00 Ry     beta= 0.01
     Davidson diagonalization with overlap
     c_bands:  1 eigenvalues not converged
     c_bands:  1 eigenvalues not converged
     c_bands:  1 eigenvalues not converged
     ethr =  3.12E-06,  avg # of iterations =  6.4

[...]

     End of self-consistent calculation

          k = 0.0000 0.0000 0.0000 (  3151 PWs)   bands (ev):

    -3.6433   4.7217   4.7217   4.7217   7.5937

[...]

          k =-0.1000-0.1000 0.2000 (  3219 PWs)   bands (ev):

[...]

     the Fermi energy is    -1.7131 ev

!    total energy              =      -0.47560480 Ry
     estimated scf accuracy    <       0.00000049 Ry
     smearing contrib. (-TS)   =      -0.04628949 Ry
     internal energy E=F+TS    =      -0.42931531 Ry

     The total energy is F=E-TS. E is the sum of the following terms:
     one-electron contribution =       0.16091342 Ry
     hartree contribution      =       0.00031586 Ry
     xc contribution           =      -0.23595061 Ry
     ewald contribution        =      -0.35459398 Ry

     convergence has been achieved in  17 iterations
     Writing meta-gga kinetic term

     Computing stress (Cartesian axis) and pressure

          total   stress  (Ry/bohr**3)                   (kbar)     P=      -15.81
  -0.00010745   0.00000000  -0.00000000          -15.81        0.00       -0.00
   0.00000000  -0.00010745   0.00000000            0.00      -15.81        0.00
  -0.00000000   0.00000000  -0.00010745           -0.00        0.00      -15.81

     BFGS Geometry Optimization
     Energy error            =      0.0E+00 Ry
     Gradient error          =      0.0E+00 Ry/Bohr
     Cell gradient error     =      1.6E+01 kbar

     number of scf cycles    =   1
     number of bfgs steps    =   0

     enthalpy           new  =      -0.4756047982 Ry

     new trust radius        =       0.0124902203 bohr
     new conv_thr            =       0.0000010000 Ry

     new unit-cell volume =    536.16836 a.u.^3 (    79.45195 Ang^3 )
     density =      0.14507 g/cm^3

CELL_PARAMETERS (alat= 10.26310000)
   0.498656903   0.498656903   0.498656903
  -0.498656903   0.498656903   0.498656903
  -0.498656903  -0.498656903   0.498656903

ATOMIC_POSITIONS (alat)
Li            0.0000000000        0.0000000000        0.0000000000    0   0   0

     Writing config-only to output data dir ./pwscf.save/
     NEW-OLD atomic charge density approx. for the potential
     extrapolated charge    0.99194, renormalised to    1.00000

[...]

     Energy error            =      4.7E-04 Ry
     Gradient error          =      0.0E+00 Ry/Bohr
     Cell gradient error     =      1.6E+01 kbar

[...]

     enthalpy           old  =      -0.4756047982 Ry
     enthalpy           new  =      -0.4760776444 Ry

     CASE: enthalpy          _new < enthalpy          _old

     WARNING: bfgs curvature condition failed, Theta= 0.799
     new trust radius        =       0.0187101502 bohr
     new conv_thr            =       0.0000000100 Ry

[...]

     WARNING: bfgs curvature condition failed, Theta= 0.050
     new trust radius        =       0.2039774856 bohr
     new conv_thr            =       0.0000000100 Ry

[...]

     Writing config-only to output data dir ./pwscf.save/
     NEW-OLD atomic charge density approx. for the potential

     negative rho (up,down):  9.314E-05 0.000E+00
     extrapolated charge    0.48763, renormalised to    1.00000

[...]

     negative rho (up,down):  1.885E-04 0.000E+00

[...]

     Writing config-only to output data dir ./pwscf.save/
     NEW-OLD atomic charge density approx. for the potential

     negative rho (up,down):  3.533E-04 0.000E+00
     extrapolated charge    0.31021, renormalised to    1.00000

[...]

     negative rho (up,down):  6.056E-04 0.000E+00

[...]

     CASE: enthalpy          _new > enthalpy          _old

[...]

     number of scf cycles    =  14
     number of bfgs steps    =  12

     enthalpy           old  =      -0.5265846849 Ry
     enthalpy           new  =      -0.5266480121 Ry

     CASE: enthalpy          _new < enthalpy          _old

     new trust radius        =       0.0095474922 bohr
     new conv_thr            =       0.0000000100 Ry

     new unit-cell volume =    146.92565 a.u.^3 (    21.77214 Ang^3 )
     density =      0.52938 g/cm^3

[...]

ATOMIC_POSITIONS (alat)
Li            0.0000000000        0.0000000000        0.0000000000    0   0   0

     Writing config-only to output data dir ./pwscf.save/
     NEW-OLD atomic charge density approx. for the potential
     extrapolated charge    1.01174, renormalised to    1.00000

[...]

     Threshold (ethr) on eigenvalues was too large:
     Diagonalizing with lowered threshold

     Davidson diagonalization with overlap
     ethr =  8.78E-09,  avg # of iterations =  1.2

[...]

     Energy error            =      6.9E-06 Ry
     Gradient error          =      0.0E+00 Ry/Bohr
     Cell gradient error     =      1.2E-02 kbar

     bfgs converged in  15 scf cycles and  13 bfgs steps
     (criteria: energy <  1.0E-04 Ry, force <  1.0E-03Ry/Bohr, cell <  5.0E-01kbar)

     End of BFGS Geometry Optimization

     Final enthalpy           =      -0.5266549445 Ry

     File ./pwscf.bfgs deleted, as requested
Begin final coordinates
     new unit-cell volume =    146.92565 a.u.^3 (    21.77214 Ang^3 )
     density =      0.52938 g/cm^3

CELL_PARAMETERS (alat= 10.26310000)
   0.323892323   0.323892323   0.323892323
  -0.323892323   0.323892323   0.323892323
  -0.323892323  -0.323892323   0.323892323

ATOMIC_POSITIONS (alat)
Li            0.0000000000        0.0000000000        0.0000000000    0   0   0
End final coordinates

     Writing config-only to output data dir ./pwscf.save/

     Final scf calculation at the relaxed structure.
     The G-vectors are recalculated for the final unit cell
     Results may differ from those at the preceding step.

     Using Slab Decomposition

     bravais-lattice index     =            3
     lattice parameter (alat)  =      10.2631  a.u.
     unit-cell volume          =     146.9257 (a.u.)^3
     number of atoms/cell      =            1
     number of atomic types    =            1
     number of electrons       =         1.00
     number of Kohn-Sham states=            5
     kinetic-energy cutoff     =      50.0000  Ry
     charge density cutoff     =     200.0000  Ry
     scf convergence threshold =      1.0E-08
     mixing beta               =       0.0100
     number of iterations used =            8  local-TF  mixing
     press convergence thresh. =      5.0E-01
     Exchange-correlation= SLA  PW   SCAN SCAN
                           (   0   0   0   0   0 263 267)

     celldm(1)=  10.263100  celldm(2)=   0.000000  celldm(3)=   0.000000
     celldm(4)=   0.000000  celldm(5)=   0.000000  celldm(6)=   0.000000

     crystal axes: (cart. coord. in units of alat)
               a(1) = (   0.323892   0.323892   0.323892 )
               a(2) = (  -0.323892   0.323892   0.323892 )
               a(3) = (  -0.323892  -0.323892   0.323892 )

     reciprocal axes: (cart. coord. in units 2 pi/alat)
               b(1) = (  1.543723  0.000000  1.543723 )
               b(2) = ( -1.543723  1.543723  0.000000 )
               b(3) = (  0.000000 -1.543723  1.543723 )

     PseudoPot. # 1 for Li read from file:
     ~/Documents/TA/PWDFT.jl/pseudopotentials/scan_upf/Li.SCAN.UPF2
     MD5 check sum: Not computed, couldn't open file
     Pseudo is Norm-conserving, Zval =  1.0
     Generated by new atomic code, or converted to UPF format
     Using radial grid of 1321 points,  1 beta functions with:
                l(1) =   0

     atomic species   valence    mass     pseudopotential
        Li             1.00     6.94100     Li( 1.00)

     48 Sym. Ops., with inversion, found

   Cartesian axes

     site n.     atom                  positions (alat units)
         1           Li  tau(   1) = (   0.0000000   0.0000000   0.0000000  )

     number of k points=    47  Gaussian smearing, width (Ry)=  0.1000
                       cart. coord. in units 2pi/alat
        k(    1) = (   0.0000000   0.0000000   0.0000000), wk =   0.0020000
        k(    2) = (   0.0000000  -0.1543723   0.1543723), wk =   0.0240000
        k(    3) = (   0.0000000  -0.3087446   0.3087446), wk =   0.0240000
        k(    4) = (   0.0000000  -0.4631169   0.4631169), wk =   0.0240000
        k(    5) = (   0.0000000  -0.6174892   0.6174892), wk =   0.0240000
        k(    6) = (   0.0000000   0.7718615  -0.7718615), wk =   0.0120000
        k(    7) = (  -0.1543723  -0.1543723   0.3087446), wk =   0.0480000
        k(    8) = (  -0.1543723  -0.3087446   0.4631169), wk =   0.0960000
        k(    9) = (  -0.1543723  -0.4631169   0.6174892), wk =   0.0960000
        k(   10) = (  -0.1543723   0.9262337  -0.7718615), wk =   0.0960000
        k(   11) = (  -0.3087446  -0.3087446   0.6174892), wk =   0.0480000
        k(   12) = (  -0.3087446   1.0806060  -0.7718615), wk =   0.0960000
        k(   13) = (  -0.3087446   0.9262337  -0.6174892), wk =   0.0480000
        k(   14) = (  -0.4631169   1.0806060  -0.6174892), wk =   0.0480000
        k(   15) = (  -0.0000000  -0.0000000   0.3087446), wk =   0.0120000
        k(   16) = (   0.0000000  -0.1543723   0.4631169), wk =   0.0480000
        k(   17) = (   0.0000000  -0.3087446   0.6174892), wk =   0.0480000
        k(   18) = (   0.0000000  -0.4631169   0.7718615), wk =   0.0480000
        k(   19) = (   0.0000000   0.9262337  -0.6174892), wk =   0.0240000
        k(   20) = (  -0.1543723  -0.1543723   0.6174892), wk =   0.0480000
        k(   21) = (  -0.1543723  -0.3087446   0.7718615), wk =   0.0960000
        k(   22) = (  -0.1543723   1.0806060  -0.6174892), wk =   0.0960000
        k(   23) = (  -0.3087446   0.3087446   0.3087446), wk =   0.0160000
        k(   24) = (  -0.3087446   1.2349783  -0.6174892), wk =   0.0480000
        k(   25) = (  -0.3087446   1.0806060  -0.4631169), wk =   0.0480000
        k(   26) = (  -0.4631169   0.4631169   0.3087446), wk =   0.0480000
        k(   27) = (   0.9262337  -0.9262337   0.3087446), wk =   0.0480000
        k(   28) = (   0.9262337  -1.0806060   0.4631169), wk =   0.0480000
        k(   29) = (   0.7718615  -0.7718615   0.3087446), wk =   0.0240000
        k(   30) = (   0.7718615  -0.9262337   0.4631169), wk =   0.0960000
        k(   31) = (   0.6174892  -0.9262337   0.6174892), wk =   0.0160000
        k(   32) = (  -0.0000000  -0.0000000   0.6174892), wk =   0.0120000
        k(   33) = (  -0.0000000  -0.1543723   0.7718615), wk =   0.0480000
        k(   34) = (   0.0000000  -0.3087446   0.9262337), wk =   0.0480000
        k(   35) = (   0.0000000   1.0806060  -0.4631169), wk =   0.0240000
        k(   36) = (  -0.1543723  -0.1543723   0.9262337), wk =   0.0480000
        k(   37) = (  -0.1543723   1.2349783  -0.4631169), wk =   0.0960000
        k(   38) = (  -0.3087446   1.2349783  -0.3087446), wk =   0.0160000
        k(   39) = (   0.9262337  -0.9262337   0.6174892), wk =   0.0160000
        k(   40) = (   0.7718615  -0.7718615   0.6174892), wk =   0.0240000
        k(   41) = (   0.0000000   0.0000000   0.9262337), wk =   0.0120000
        k(   42) = (  -0.0000000  -0.1543723   1.0806060), wk =   0.0480000
        k(   43) = (  -0.0000000   1.2349783  -0.3087446), wk =   0.0240000
        k(   44) = (  -0.1543723   1.3893506  -0.3087446), wk =   0.0480000
        k(   45) = (  -0.0000000  -0.0000000   1.2349783), wk =   0.0120000
        k(   46) = (  -0.0000000   1.3893506  -0.1543723), wk =   0.0240000
        k(   47) = (   0.0000000   0.0000000  -1.5437229), wk =   0.0020000

      on external parameters: check the user_guide of
      QE if you need to modify them or to check their
      default values.

     Initial potential from superposition of free atoms

     starting charge       0.9953, renormalised to       1.0000
     Starting wfcs are    4 randomized atomic wfcs +    1 random wfcs

     Self-consistent Calculation

     iteration #  1     ecut=    50.00 Ry     beta= 0.01
     Davidson diagonalization with overlap
     c_bands:  1 eigenvalues not converged
     c_bands:  1 eigenvalues not converged
     c_bands:  1 eigenvalues not converged
     c_bands:  1 eigenvalues not converged
     c_bands:  1 eigenvalues not converged
     c_bands:  1 eigenvalues not converged
     ethr =  1.00E-06,  avg # of iterations = 13.7

[...]

     total energy              =      -0.52673020 Ry
     estimated scf accuracy    <       0.00000062 Ry

     iteration # 10     ecut=    50.00 Ry     beta= 0.01
     Davidson diagonalization with overlap
     ethr =  1.26E-08,  avg # of iterations =  1.9

     End of self-consistent calculation

[...]

          k =-0.0000 1.3894-0.1544 (   866 PWs)   bands (ev):

[...]

          k = 0.0000 0.0000-1.5437 (   856 PWs)   bands (ev):

     6.0341   6.0341   6.0341   8.1228   8.1228

     the Fermi energy is     0.3310 ev

!    total energy              =      -0.52673053 Ry
     estimated scf accuracy    <          7.7E-10 Ry
     smearing contrib. (-TS)   =      -0.02795595 Ry
     internal energy E=F+TS    =      -0.49877458 Ry

     The total energy is F=E-TS. E is the sum of the following terms:
     one-electron contribution =       0.39634264 Ry
     hartree contribution      =       0.00099844 Ry
     xc contribution           =      -0.34872080 Ry
     ewald contribution        =      -0.54739485 Ry

     convergence has been achieved in  10 iterations
     Writing meta-gga kinetic term

     Computing stress (Cartesian axis) and pressure

          total   stress  (Ry/bohr**3)                   (kbar)     P=       -0.08
  -0.00000053   0.00000000   0.00000000           -0.08        0.00        0.00
  -0.00000000  -0.00000053   0.00000000           -0.00       -0.08        0.00
  -0.00000000   0.00000000  -0.00000053           -0.00        0.00       -0.08

     Writing all to output data dir ./pwscf.save/
     Writing meta-gga kinetic term

     General routines

     Parallel routines

   This run was terminated on:  10:53:30  24Mar2023

   JOB DONE.